p cnf 375 8900
1 2 3 0
-1 -2 0
-1 -3 0
-2 -3 0
4 5 6 0
-4 -5 0
-4 -6 0
-5 -6 0
7 8 9 0
-7 -8 0
-7 -9 0
-8 -9 0
10 11 12 0
-10 -11 0
-10 -12 0
-11 -12 0
13 14 15 0
-13 -14 0
-13 -15 0
-14 -15 0
16 17 18 0
-16 -17 0
-16 -18 0
-17 -18 0
19 20 21 0
-19 -20 0
-19 -21 0
-20 -21 0
22 23 24 0
-22 -23 0
-22 -24 0
-23 -24 0
25 26 27 0
-25 -26 0
-25 -27 0
-26 -27 0
28 29 30 0
-28 -29 0
-28 -30 0
-29 -30 0
31 32 33 0
-31 -32 0
-31 -33 0
-32 -33 0
34 35 36 0
-34 -35 0
-34 -36 0
-35 -36 0
37 38 39 0
-37 -38 0
-37 -39 0
-38 -39 0
40 41 42 0
-40 -41 0
-40 -42 0
-41 -42 0
43 44 45 0
-43 -44 0
-43 -45 0
-44 -45 0
46 47 48 0
-46 -47 0
-46 -48 0
-47 -48 0
49 50 51 0
-49 -50 0
-49 -51 0
-50 -51 0
52 53 54 0
-52 -53 0
-52 -54 0
-53 -54 0
55 56 57 0
-55 -56 0
-55 -57 0
-56 -57 0
58 59 60 0
-58 -59 0
-58 -60 0
-59 -60 0
61 62 63 0
-61 -62 0
-61 -63 0
-62 -63 0
64 65 66 0
-64 -65 0
-64 -66 0
-65 -66 0
67 68 69 0
-67 -68 0
-67 -69 0
-68 -69 0
70 71 72 0
-70 -71 0
-70 -72 0
-71 -72 0
73 74 75 0
-73 -74 0
-73 -75 0
-74 -75 0
76 77 78 0
-76 -77 0
-76 -78 0
-77 -78 0
79 80 81 0
-79 -80 0
-79 -81 0
-80 -81 0
82 83 84 0
-82 -83 0
-82 -84 0
-83 -84 0
85 86 87 0
-85 -86 0
-85 -87 0
-86 -87 0
88 89 90 0
-88 -89 0
-88 -90 0
-89 -90 0
91 92 93 0
-91 -92 0
-91 -93 0
-92 -93 0
94 95 96 0
-94 -95 0
-94 -96 0
-95 -96 0
97 98 99 0
-97 -98 0
-97 -99 0
-98 -99 0
100 101 102 0
-100 -101 0
-100 -102 0
-101 -102 0
103 104 105 0
-103 -104 0
-103 -105 0
-104 -105 0
106 107 108 0
-106 -107 0
-106 -108 0
-107 -108 0
109 110 111 0
-109 -110 0
-109 -111 0
-110 -111 0
112 113 114 0
-112 -113 0
-112 -114 0
-113 -114 0
115 116 117 0
-115 -116 0
-115 -117 0
-116 -117 0
118 119 120 0
-118 -119 0
-118 -120 0
-119 -120 0
121 122 123 0
-121 -122 0
-121 -123 0
-122 -123 0
124 125 126 0
-124 -125 0
-124 -126 0
-125 -126 0
127 128 129 0
-127 -128 0
-127 -129 0
-128 -129 0
130 131 132 0
-130 -131 0
-130 -132 0
-131 -132 0
133 134 135 0
-133 -134 0
-133 -135 0
-134 -135 0
136 137 138 0
-136 -137 0
-136 -138 0
-137 -138 0
139 140 141 0
-139 -140 0
-139 -141 0
-140 -141 0
142 143 144 0
-142 -143 0
-142 -144 0
-143 -144 0
145 146 147 0
-145 -146 0
-145 -147 0
-146 -147 0
148 149 150 0
-148 -149 0
-148 -150 0
-149 -150 0
151 152 153 0
-151 -152 0
-151 -153 0
-152 -153 0
154 155 156 0
-154 -155 0
-154 -156 0
-155 -156 0
157 158 159 0
-157 -158 0
-157 -159 0
-158 -159 0
160 161 162 0
-160 -161 0
-160 -162 0
-161 -162 0
163 164 165 0
-163 -164 0
-163 -165 0
-164 -165 0
166 167 168 0
-166 -167 0
-166 -168 0
-167 -168 0
169 170 171 0
-169 -170 0
-169 -171 0
-170 -171 0
172 173 174 0
-172 -173 0
-172 -174 0
-173 -174 0
175 176 177 0
-175 -176 0
-175 -177 0
-176 -177 0
178 179 180 0
-178 -179 0
-178 -180 0
-179 -180 0
181 182 183 0
-181 -182 0
-181 -183 0
-182 -183 0
184 185 186 0
-184 -185 0
-184 -186 0
-185 -186 0
187 188 189 0
-187 -188 0
-187 -189 0
-188 -189 0
190 191 192 0
-190 -191 0
-190 -192 0
-191 -192 0
193 194 195 0
-193 -194 0
-193 -195 0
-194 -195 0
196 197 198 0
-196 -197 0
-196 -198 0
-197 -198 0
199 200 201 0
-199 -200 0
-199 -201 0
-200 -201 0
202 203 204 0
-202 -203 0
-202 -204 0
-203 -204 0
205 206 207 0
-205 -206 0
-205 -207 0
-206 -207 0
208 209 210 0
-208 -209 0
-208 -210 0
-209 -210 0
211 212 213 0
-211 -212 0
-211 -213 0
-212 -213 0
214 215 216 0
-214 -215 0
-214 -216 0
-215 -216 0
217 218 219 0
-217 -218 0
-217 -219 0
-218 -219 0
220 221 222 0
-220 -221 0
-220 -222 0
-221 -222 0
223 224 225 0
-223 -224 0
-223 -225 0
-224 -225 0
226 227 228 0
-226 -227 0
-226 -228 0
-227 -228 0
229 230 231 0
-229 -230 0
-229 -231 0
-230 -231 0
232 233 234 0
-232 -233 0
-232 -234 0
-233 -234 0
235 236 237 0
-235 -236 0
-235 -237 0
-236 -237 0
238 239 240 0
-238 -239 0
-238 -240 0
-239 -240 0
241 242 243 0
-241 -242 0
-241 -243 0
-242 -243 0
244 245 246 0
-244 -245 0
-244 -246 0
-245 -246 0
247 248 249 0
-247 -248 0
-247 -249 0
-248 -249 0
250 251 252 0
-250 -251 0
-250 -252 0
-251 -252 0
253 254 255 0
-253 -254 0
-253 -255 0
-254 -255 0
256 257 258 0
-256 -257 0
-256 -258 0
-257 -258 0
259 260 261 0
-259 -260 0
-259 -261 0
-260 -261 0
262 263 264 0
-262 -263 0
-262 -264 0
-263 -264 0
265 266 267 0
-265 -266 0
-265 -267 0
-266 -267 0
268 269 270 0
-268 -269 0
-268 -270 0
-269 -270 0
271 272 273 0
-271 -272 0
-271 -273 0
-272 -273 0
274 275 276 0
-274 -275 0
-274 -276 0
-275 -276 0
277 278 279 0
-277 -278 0
-277 -279 0
-278 -279 0
280 281 282 0
-280 -281 0
-280 -282 0
-281 -282 0
283 284 285 0
-283 -284 0
-283 -285 0
-284 -285 0
286 287 288 0
-286 -287 0
-286 -288 0
-287 -288 0
289 290 291 0
-289 -290 0
-289 -291 0
-290 -291 0
292 293 294 0
-292 -293 0
-292 -294 0
-293 -294 0
295 296 297 0
-295 -296 0
-295 -297 0
-296 -297 0
298 299 300 0
-298 -299 0
-298 -300 0
-299 -300 0
301 302 303 0
-301 -302 0
-301 -303 0
-302 -303 0
304 305 306 0
-304 -305 0
-304 -306 0
-305 -306 0
307 308 309 0
-307 -308 0
-307 -309 0
-308 -309 0
310 311 312 0
-310 -311 0
-310 -312 0
-311 -312 0
313 314 315 0
-313 -314 0
-313 -315 0
-314 -315 0
316 317 318 0
-316 -317 0
-316 -318 0
-317 -318 0
319 320 321 0
-319 -320 0
-319 -321 0
-320 -321 0
322 323 324 0
-322 -323 0
-322 -324 0
-323 -324 0
325 326 327 0
-325 -326 0
-325 -327 0
-326 -327 0
328 329 330 0
-328 -329 0
-328 -330 0
-329 -330 0
331 332 333 0
-331 -332 0
-331 -333 0
-332 -333 0
334 335 336 0
-334 -335 0
-334 -336 0
-335 -336 0
337 338 339 0
-337 -338 0
-337 -339 0
-338 -339 0
340 341 342 0
-340 -341 0
-340 -342 0
-341 -342 0
343 344 345 0
-343 -344 0
-343 -345 0
-344 -345 0
346 347 348 0
-346 -347 0
-346 -348 0
-347 -348 0
349 350 351 0
-349 -350 0
-349 -351 0
-350 -351 0
352 353 354 0
-352 -353 0
-352 -354 0
-353 -354 0
355 356 357 0
-355 -356 0
-355 -357 0
-356 -357 0
358 359 360 0
-358 -359 0
-358 -360 0
-359 -360 0
361 362 363 0
-361 -362 0
-361 -363 0
-362 -363 0
364 365 366 0
-364 -365 0
-364 -366 0
-365 -366 0
367 368 369 0
-367 -368 0
-367 -369 0
-368 -369 0
370 371 372 0
-370 -371 0
-370 -372 0
-371 -372 0
373 374 375 0
-373 -374 0
-373 -375 0
-374 -375 0
-13 -4 -1 0
-14 -5 -2 0
-15 -6 -3 0
-13 -7 -4 0
-14 -8 -5 0
-15 -9 -6 0
-13 -10 -7 0
-14 -11 -8 0
-15 -12 -9 0
-13 -10 0
-14 -11 0
-15 -12 0
-16 -13 0
-17 -14 0
-18 -15 0
-19 -16 -13 0
-20 -17 -14 0
-21 -18 -15 0
-22 -19 -13 0
-23 -20 -14 0
-24 -21 -15 0
-25 -22 -13 0
-26 -23 -14 0
-27 -24 -15 0
-28 -25 -13 0
-29 -26 -14 0
-30 -27 -15 0
-31 -28 -13 0
-32 -29 -14 0
-33 -30 -15 0
-34 -31 -13 0
-35 -32 -14 0
-36 -33 -15 0
-37 -34 -13 0
-38 -35 -14 0
-39 -36 -15 0
-40 -37 -13 0
-41 -38 -14 0
-42 -39 -15 0
-43 -40 -13 0
-44 -41 -14 0
-45 -42 -15 0
-46 -43 -13 0
-47 -44 -14 0
-48 -45 -15 0
-49 -46 -13 0
-50 -47 -14 0
-51 -48 -15 0
-52 -49 -13 0
-53 -50 -14 0
-54 -51 -15 0
-55 -52 -13 0
-56 -53 -14 0
-57 -54 -15 0
-58 -55 -13 0
-59 -56 -14 0
-60 -57 -15 0
-61 -58 -13 0
-62 -59 -14 0
-63 -60 -15 0
-64 -61 -13 0
-65 -62 -14 0
-66 -63 -15 0
-67 -64 -13 0
-68 -65 -14 0
-69 -66 -15 0
-70 -67 -13 0
-71 -68 -14 0
-72 -69 -15 0
-73 -70 -13 0
-74 -71 -14 0
-75 -72 -15 0
-76 -73 -13 0
-77 -74 -14 0
-78 -75 -15 0
-79 -76 -13 0
-80 -77 -14 0
-81 -78 -15 0
-82 -79 -13 0
-83 -80 -14 0
-84 -81 -15 0
-85 -82 -13 0
-86 -83 -14 0
-87 -84 -15 0
-88 -85 -13 0
-89 -86 -14 0
-90 -87 -15 0
-91 -88 -13 0
-92 -89 -14 0
-93 -90 -15 0
-94 -91 -13 0
-95 -92 -14 0
-96 -93 -15 0
-97 -94 -13 0
-98 -95 -14 0
-99 -96 -15 0
-100 -97 -13 0
-101 -98 -14 0
-102 -99 -15 0
-103 -100 -13 0
-104 -101 -14 0
-105 -102 -15 0
-106 -103 -13 0
-107 -104 -14 0
-108 -105 -15 0
-109 -106 -13 0
-110 -107 -14 0
-111 -108 -15 0
-112 -109 -13 0
-113 -110 -14 0
-114 -111 -15 0
-115 -112 -13 0
-116 -113 -14 0
-117 -114 -15 0
-118 -115 -13 0
-119 -116 -14 0
-120 -117 -15 0
-121 -118 -13 0
-122 -119 -14 0
-123 -120 -15 0
-124 -121 -13 0
-125 -122 -14 0
-126 -123 -15 0
-127 -124 -13 0
-128 -125 -14 0
-129 -126 -15 0
-130 -127 -13 0
-131 -128 -14 0
-132 -129 -15 0
-133 -130 -13 0
-134 -131 -14 0
-135 -132 -15 0
-136 -133 -13 0
-137 -134 -14 0
-138 -135 -15 0
-139 -136 -13 0
-140 -137 -14 0
-141 -138 -15 0
-142 -139 -13 0
-143 -140 -14 0
-144 -141 -15 0
-145 -142 -13 0
-146 -143 -14 0
-147 -144 -15 0
-148 -145 -13 0
-149 -146 -14 0
-150 -147 -15 0
-151 -148 -13 0
-152 -149 -14 0
-153 -150 -15 0
-154 -151 -13 0
-155 -152 -14 0
-156 -153 -15 0
-157 -154 -13 0
-158 -155 -14 0
-159 -156 -15 0
-160 -157 -13 0
-161 -158 -14 0
-162 -159 -15 0
-163 -160 -13 0
-164 -161 -14 0
-165 -162 -15 0
-166 -163 -13 0
-167 -164 -14 0
-168 -165 -15 0
-169 -166 -13 0
-170 -167 -14 0
-171 -168 -15 0
-172 -169 -13 0
-173 -170 -14 0
-174 -171 -15 0
-175 -172 -13 0
-176 -173 -14 0
-177 -174 -15 0
-178 -175 -13 0
-179 -176 -14 0
-180 -177 -15 0
-181 -178 -13 0
-182 -179 -14 0
-183 -180 -15 0
-184 -181 -13 0
-185 -182 -14 0
-186 -183 -15 0
-187 -184 -13 0
-188 -185 -14 0
-189 -186 -15 0
-190 -187 -13 0
-191 -188 -14 0
-192 -189 -15 0
-193 -190 -13 0
-194 -191 -14 0
-195 -192 -15 0
-196 -193 -13 0
-197 -194 -14 0
-198 -195 -15 0
-199 -196 -13 0
-200 -197 -14 0
-201 -198 -15 0
-202 -199 -13 0
-203 -200 -14 0
-204 -201 -15 0
-205 -202 -13 0
-206 -203 -14 0
-207 -204 -15 0
-208 -205 -13 0
-209 -206 -14 0
-210 -207 -15 0
-211 -208 -13 0
-212 -209 -14 0
-213 -210 -15 0
-214 -211 -13 0
-215 -212 -14 0
-216 -213 -15 0
-217 -214 -13 0
-218 -215 -14 0
-219 -216 -15 0
-220 -217 -13 0
-221 -218 -14 0
-222 -219 -15 0
-223 -220 -13 0
-224 -221 -14 0
-225 -222 -15 0
-226 -223 -13 0
-227 -224 -14 0
-228 -225 -15 0
-229 -226 -13 0
-230 -227 -14 0
-231 -228 -15 0
-232 -229 -13 0
-233 -230 -14 0
-234 -231 -15 0
-235 -232 -13 0
-236 -233 -14 0
-237 -234 -15 0
-238 -235 -13 0
-239 -236 -14 0
-240 -237 -15 0
-241 -238 -13 0
-242 -239 -14 0
-243 -240 -15 0
-244 -241 -13 0
-245 -242 -14 0
-246 -243 -15 0
-247 -244 -13 0
-248 -245 -14 0
-249 -246 -15 0
-250 -247 -13 0
-251 -248 -14 0
-252 -249 -15 0
-253 -250 -13 0
-254 -251 -14 0
-255 -252 -15 0
-256 -253 -13 0
-257 -254 -14 0
-258 -255 -15 0
-259 -256 -13 0
-260 -257 -14 0
-261 -258 -15 0
-262 -259 -13 0
-263 -260 -14 0
-264 -261 -15 0
-265 -262 -13 0
-266 -263 -14 0
-267 -264 -15 0
-268 -265 -13 0
-269 -266 -14 0
-270 -267 -15 0
-271 -268 -13 0
-272 -269 -14 0
-273 -270 -15 0
-274 -271 -13 0
-275 -272 -14 0
-276 -273 -15 0
-277 -274 -13 0
-278 -275 -14 0
-279 -276 -15 0
-280 -277 -13 0
-281 -278 -14 0
-282 -279 -15 0
-283 -280 -13 0
-284 -281 -14 0
-285 -282 -15 0
-286 -283 -13 0
-287 -284 -14 0
-288 -285 -15 0
-289 -286 -13 0
-290 -287 -14 0
-291 -288 -15 0
-292 -289 -13 0
-293 -290 -14 0
-294 -291 -15 0
-295 -292 -13 0
-296 -293 -14 0
-297 -294 -15 0
-298 -295 -13 0
-299 -296 -14 0
-300 -297 -15 0
-301 -298 -13 0
-302 -299 -14 0
-303 -300 -15 0
-304 -301 -13 0
-305 -302 -14 0
-306 -303 -15 0
-307 -304 -13 0
-308 -305 -14 0
-309 -306 -15 0
-310 -307 -13 0
-311 -308 -14 0
-312 -309 -15 0
-313 -310 -13 0
-314 -311 -14 0
-315 -312 -15 0
-316 -313 -13 0
-317 -314 -14 0
-318 -315 -15 0
-319 -316 -13 0
-320 -317 -14 0
-321 -318 -15 0
-322 -319 -13 0
-323 -320 -14 0
-324 -321 -15 0
-325 -322 -13 0
-326 -323 -14 0
-327 -324 -15 0
-328 -325 -13 0
-329 -326 -14 0
-330 -327 -15 0
-331 -328 -13 0
-332 -329 -14 0
-333 -330 -15 0
-334 -331 -13 0
-335 -332 -14 0
-336 -333 -15 0
-337 -334 -13 0
-338 -335 -14 0
-339 -336 -15 0
-340 -337 -13 0
-341 -338 -14 0
-342 -339 -15 0
-343 -340 -13 0
-344 -341 -14 0
-345 -342 -15 0
-346 -343 -13 0
-347 -344 -14 0
-348 -345 -15 0
-349 -346 -13 0
-350 -347 -14 0
-351 -348 -15 0
-352 -349 -13 0
-353 -350 -14 0
-354 -351 -15 0
-355 -352 -13 0
-356 -353 -14 0
-357 -354 -15 0
-358 -355 -13 0
-359 -356 -14 0
-360 -357 -15 0
-361 -358 -13 0
-362 -359 -14 0
-363 -360 -15 0
-364 -361 -13 0
-365 -362 -14 0
-366 -363 -15 0
-367 -364 -13 0
-368 -365 -14 0
-369 -366 -15 0
-370 -367 -13 0
-371 -368 -14 0
-372 -369 -15 0
-373 -370 -13 0
-374 -371 -14 0
-375 -372 -15 0
-28 -7 -1 0
-29 -8 -2 0
-30 -9 -3 0
-28 -10 -4 0
-29 -11 -5 0
-30 -12 -6 0
-28 -13 -7 0
-29 -14 -8 0
-30 -15 -9 0
-28 -16 -10 0
-29 -17 -11 0
-30 -18 -12 0
-28 -19 -13 0
-29 -20 -14 0
-30 -21 -15 0
-28 -22 -16 0
-29 -23 -17 0
-30 -24 -18 0
-28 -25 -19 0
-29 -26 -20 0
-30 -27 -21 0
-28 -22 0
-29 -23 0
-30 -24 0
-31 -28 -25 0
-32 -29 -26 0
-33 -30 -27 0
-34 -28 0
-35 -29 0
-36 -30 0
-37 -31 -28 0
-38 -32 -29 0
-39 -33 -30 0
-40 -34 -28 0
-41 -35 -29 0
-42 -36 -30 0
-43 -37 -28 0
-44 -38 -29 0
-45 -39 -30 0
-46 -40 -28 0
-47 -41 -29 0
-48 -42 -30 0
-49 -43 -28 0
-50 -44 -29 0
-51 -45 -30 0
-52 -46 -28 0
-53 -47 -29 0
-54 -48 -30 0
-55 -49 -28 0
-56 -50 -29 0
-57 -51 -30 0
-58 -52 -28 0
-59 -53 -29 0
-60 -54 -30 0
-61 -55 -28 0
-62 -56 -29 0
-63 -57 -30 0
-64 -58 -28 0
-65 -59 -29 0
-66 -60 -30 0
-67 -61 -28 0
-68 -62 -29 0
-69 -63 -30 0
-70 -64 -28 0
-71 -65 -29 0
-72 -66 -30 0
-73 -67 -28 0
-74 -68 -29 0
-75 -69 -30 0
-76 -70 -28 0
-77 -71 -29 0
-78 -72 -30 0
-79 -73 -28 0
-80 -74 -29 0
-81 -75 -30 0
-82 -76 -28 0
-83 -77 -29 0
-84 -78 -30 0
-85 -79 -28 0
-86 -80 -29 0
-87 -81 -30 0
-88 -82 -28 0
-89 -83 -29 0
-90 -84 -30 0
-91 -85 -28 0
-92 -86 -29 0
-93 -87 -30 0
-94 -88 -28 0
-95 -89 -29 0
-96 -90 -30 0
-97 -91 -28 0
-98 -92 -29 0
-99 -93 -30 0
-100 -94 -28 0
-101 -95 -29 0
-102 -96 -30 0
-103 -97 -28 0
-104 -98 -29 0
-105 -99 -30 0
-106 -100 -28 0
-107 -101 -29 0
-108 -102 -30 0
-109 -103 -28 0
-110 -104 -29 0
-111 -105 -30 0
-112 -106 -28 0
-113 -107 -29 0
-114 -108 -30 0
-115 -109 -28 0
-116 -110 -29 0
-117 -111 -30 0
-118 -112 -28 0
-119 -113 -29 0
-120 -114 -30 0
-121 -115 -28 0
-122 -116 -29 0
-123 -117 -30 0
-124 -118 -28 0
-125 -119 -29 0
-126 -120 -30 0
-127 -121 -28 0
-128 -122 -29 0
-129 -123 -30 0
-130 -124 -28 0
-131 -125 -29 0
-132 -126 -30 0
-133 -127 -28 0
-134 -128 -29 0
-135 -129 -30 0
-136 -130 -28 0
-137 -131 -29 0
-138 -132 -30 0
-139 -133 -28 0
-140 -134 -29 0
-141 -135 -30 0
-142 -136 -28 0
-143 -137 -29 0
-144 -138 -30 0
-145 -139 -28 0
-146 -140 -29 0
-147 -141 -30 0
-148 -142 -28 0
-149 -143 -29 0
-150 -144 -30 0
-151 -145 -28 0
-152 -146 -29 0
-153 -147 -30 0
-154 -148 -28 0
-155 -149 -29 0
-156 -150 -30 0
-157 -151 -28 0
-158 -152 -29 0
-159 -153 -30 0
-160 -154 -28 0
-161 -155 -29 0
-162 -156 -30 0
-163 -157 -28 0
-164 -158 -29 0
-165 -159 -30 0
-166 -160 -28 0
-167 -161 -29 0
-168 -162 -30 0
-169 -163 -28 0
-170 -164 -29 0
-171 -165 -30 0
-172 -166 -28 0
-173 -167 -29 0
-174 -168 -30 0
-175 -169 -28 0
-176 -170 -29 0
-177 -171 -30 0
-178 -172 -28 0
-179 -173 -29 0
-180 -174 -30 0
-181 -175 -28 0
-182 -176 -29 0
-183 -177 -30 0
-184 -178 -28 0
-185 -179 -29 0
-186 -180 -30 0
-187 -181 -28 0
-188 -182 -29 0
-189 -183 -30 0
-190 -184 -28 0
-191 -185 -29 0
-192 -186 -30 0
-193 -187 -28 0
-194 -188 -29 0
-195 -189 -30 0
-196 -190 -28 0
-197 -191 -29 0
-198 -192 -30 0
-199 -193 -28 0
-200 -194 -29 0
-201 -195 -30 0
-202 -196 -28 0
-203 -197 -29 0
-204 -198 -30 0
-205 -199 -28 0
-206 -200 -29 0
-207 -201 -30 0
-208 -202 -28 0
-209 -203 -29 0
-210 -204 -30 0
-211 -205 -28 0
-212 -206 -29 0
-213 -207 -30 0
-214 -208 -28 0
-215 -209 -29 0
-216 -210 -30 0
-217 -211 -28 0
-218 -212 -29 0
-219 -213 -30 0
-220 -214 -28 0
-221 -215 -29 0
-222 -216 -30 0
-223 -217 -28 0
-224 -218 -29 0
-225 -219 -30 0
-226 -220 -28 0
-227 -221 -29 0
-228 -222 -30 0
-229 -223 -28 0
-230 -224 -29 0
-231 -225 -30 0
-232 -226 -28 0
-233 -227 -29 0
-234 -228 -30 0
-235 -229 -28 0
-236 -230 -29 0
-237 -231 -30 0
-238 -232 -28 0
-239 -233 -29 0
-240 -234 -30 0
-241 -235 -28 0
-242 -236 -29 0
-243 -237 -30 0
-244 -238 -28 0
-245 -239 -29 0
-246 -240 -30 0
-247 -241 -28 0
-248 -242 -29 0
-249 -243 -30 0
-250 -244 -28 0
-251 -245 -29 0
-252 -246 -30 0
-253 -247 -28 0
-254 -248 -29 0
-255 -249 -30 0
-256 -250 -28 0
-257 -251 -29 0
-258 -252 -30 0
-259 -253 -28 0
-260 -254 -29 0
-261 -255 -30 0
-262 -256 -28 0
-263 -257 -29 0
-264 -258 -30 0
-265 -259 -28 0
-266 -260 -29 0
-267 -261 -30 0
-268 -262 -28 0
-269 -263 -29 0
-270 -264 -30 0
-271 -265 -28 0
-272 -266 -29 0
-273 -267 -30 0
-274 -268 -28 0
-275 -269 -29 0
-276 -270 -30 0
-277 -271 -28 0
-278 -272 -29 0
-279 -273 -30 0
-280 -274 -28 0
-281 -275 -29 0
-282 -276 -30 0
-283 -277 -28 0
-284 -278 -29 0
-285 -279 -30 0
-286 -280 -28 0
-287 -281 -29 0
-288 -282 -30 0
-289 -283 -28 0
-290 -284 -29 0
-291 -285 -30 0
-292 -286 -28 0
-293 -287 -29 0
-294 -288 -30 0
-295 -289 -28 0
-296 -290 -29 0
-297 -291 -30 0
-298 -292 -28 0
-299 -293 -29 0
-300 -294 -30 0
-301 -295 -28 0
-302 -296 -29 0
-303 -297 -30 0
-304 -298 -28 0
-305 -299 -29 0
-306 -300 -30 0
-307 -301 -28 0
-308 -302 -29 0
-309 -303 -30 0
-310 -304 -28 0
-311 -305 -29 0
-312 -306 -30 0
-313 -307 -28 0
-314 -308 -29 0
-315 -309 -30 0
-316 -310 -28 0
-317 -311 -29 0
-318 -312 -30 0
-319 -313 -28 0
-320 -314 -29 0
-321 -315 -30 0
-322 -316 -28 0
-323 -317 -29 0
-324 -318 -30 0
-325 -319 -28 0
-326 -320 -29 0
-327 -321 -30 0
-328 -322 -28 0
-329 -323 -29 0
-330 -324 -30 0
-331 -325 -28 0
-332 -326 -29 0
-333 -327 -30 0
-334 -328 -28 0
-335 -329 -29 0
-336 -330 -30 0
-337 -331 -28 0
-338 -332 -29 0
-339 -333 -30 0
-340 -334 -28 0
-341 -335 -29 0
-342 -336 -30 0
-343 -337 -28 0
-344 -338 -29 0
-345 -339 -30 0
-346 -340 -28 0
-347 -341 -29 0
-348 -342 -30 0
-349 -343 -28 0
-350 -344 -29 0
-351 -345 -30 0
-352 -346 -28 0
-353 -347 -29 0
-354 -348 -30 0
-355 -349 -28 0
-356 -350 -29 0
-357 -351 -30 0
-358 -352 -28 0
-359 -353 -29 0
-360 -354 -30 0
-361 -355 -28 0
-362 -356 -29 0
-363 -357 -30 0
-364 -358 -28 0
-365 -359 -29 0
-366 -360 -30 0
-367 -361 -28 0
-368 -362 -29 0
-369 -363 -30 0
-370 -364 -28 0
-371 -365 -29 0
-372 -366 -30 0
-373 -367 -28 0
-374 -368 -29 0
-375 -369 -30 0
-43 -10 -1 0
-44 -11 -2 0
-45 -12 -3 0
-43 -13 -4 0
-44 -14 -5 0
-45 -15 -6 0
-43 -16 -7 0
-44 -17 -8 0
-45 -18 -9 0
-43 -19 -10 0
-44 -20 -11 0
-45 -21 -12 0
-43 -22 -13 0
-44 -23 -14 0
-45 -24 -15 0
-43 -25 -16 0
-44 -26 -17 0
-45 -27 -18 0
-43 -28 -19 0
-44 -29 -20 0
-45 -30 -21 0
-43 -31 -22 0
-44 -32 -23 0
-45 -33 -24 0
-43 -34 -25 0
-44 -35 -26 0
-45 -36 -27 0
-43 -37 -28 0
-44 -38 -29 0
-45 -39 -30 0
-43 -40 -31 0
-44 -41 -32 0
-45 -42 -33 0
-43 -34 0
-44 -35 0
-45 -36 0
-46 -43 -37 0
-47 -44 -38 0
-48 -45 -39 0
-49 -43 -40 0
-50 -44 -41 0
-51 -45 -42 0
-52 -43 0
-53 -44 0
-54 -45 0
-55 -46 -43 0
-56 -47 -44 0
-57 -48 -45 0
-58 -49 -43 0
-59 -50 -44 0
-60 -51 -45 0
-61 -52 -43 0
-62 -53 -44 0
-63 -54 -45 0
-64 -55 -43 0
-65 -56 -44 0
-66 -57 -45 0
-67 -58 -43 0
-68 -59 -44 0
-69 -60 -45 0
-70 -61 -43 0
-71 -62 -44 0
-72 -63 -45 0
-73 -64 -43 0
-74 -65 -44 0
-75 -66 -45 0
-76 -67 -43 0
-77 -68 -44 0
-78 -69 -45 0
-79 -70 -43 0
-80 -71 -44 0
-81 -72 -45 0
-82 -73 -43 0
-83 -74 -44 0
-84 -75 -45 0
-85 -76 -43 0
-86 -77 -44 0
-87 -78 -45 0
-88 -79 -43 0
-89 -80 -44 0
-90 -81 -45 0
-91 -82 -43 0
-92 -83 -44 0
-93 -84 -45 0
-94 -85 -43 0
-95 -86 -44 0
-96 -87 -45 0
-97 -88 -43 0
-98 -89 -44 0
-99 -90 -45 0
-100 -91 -43 0
-101 -92 -44 0
-102 -93 -45 0
-103 -94 -43 0
-104 -95 -44 0
-105 -96 -45 0
-106 -97 -43 0
-107 -98 -44 0
-108 -99 -45 0
-109 -100 -43 0
-110 -101 -44 0
-111 -102 -45 0
-112 -103 -43 0
-113 -104 -44 0
-114 -105 -45 0
-115 -106 -43 0
-116 -107 -44 0
-117 -108 -45 0
-118 -109 -43 0
-119 -110 -44 0
-120 -111 -45 0
-121 -112 -43 0
-122 -113 -44 0
-123 -114 -45 0
-124 -115 -43 0
-125 -116 -44 0
-126 -117 -45 0
-127 -118 -43 0
-128 -119 -44 0
-129 -120 -45 0
-130 -121 -43 0
-131 -122 -44 0
-132 -123 -45 0
-133 -124 -43 0
-134 -125 -44 0
-135 -126 -45 0
-136 -127 -43 0
-137 -128 -44 0
-138 -129 -45 0
-139 -130 -43 0
-140 -131 -44 0
-141 -132 -45 0
-142 -133 -43 0
-143 -134 -44 0
-144 -135 -45 0
-145 -136 -43 0
-146 -137 -44 0
-147 -138 -45 0
-148 -139 -43 0
-149 -140 -44 0
-150 -141 -45 0
-151 -142 -43 0
-152 -143 -44 0
-153 -144 -45 0
-154 -145 -43 0
-155 -146 -44 0
-156 -147 -45 0
-157 -148 -43 0
-158 -149 -44 0
-159 -150 -45 0
-160 -151 -43 0
-161 -152 -44 0
-162 -153 -45 0
-163 -154 -43 0
-164 -155 -44 0
-165 -156 -45 0
-166 -157 -43 0
-167 -158 -44 0
-168 -159 -45 0
-169 -160 -43 0
-170 -161 -44 0
-171 -162 -45 0
-172 -163 -43 0
-173 -164 -44 0
-174 -165 -45 0
-175 -166 -43 0
-176 -167 -44 0
-177 -168 -45 0
-178 -169 -43 0
-179 -170 -44 0
-180 -171 -45 0
-181 -172 -43 0
-182 -173 -44 0
-183 -174 -45 0
-184 -175 -43 0
-185 -176 -44 0
-186 -177 -45 0
-187 -178 -43 0
-188 -179 -44 0
-189 -180 -45 0
-190 -181 -43 0
-191 -182 -44 0
-192 -183 -45 0
-193 -184 -43 0
-194 -185 -44 0
-195 -186 -45 0
-196 -187 -43 0
-197 -188 -44 0
-198 -189 -45 0
-199 -190 -43 0
-200 -191 -44 0
-201 -192 -45 0
-202 -193 -43 0
-203 -194 -44 0
-204 -195 -45 0
-205 -196 -43 0
-206 -197 -44 0
-207 -198 -45 0
-208 -199 -43 0
-209 -200 -44 0
-210 -201 -45 0
-211 -202 -43 0
-212 -203 -44 0
-213 -204 -45 0
-214 -205 -43 0
-215 -206 -44 0
-216 -207 -45 0
-217 -208 -43 0
-218 -209 -44 0
-219 -210 -45 0
-220 -211 -43 0
-221 -212 -44 0
-222 -213 -45 0
-223 -214 -43 0
-224 -215 -44 0
-225 -216 -45 0
-226 -217 -43 0
-227 -218 -44 0
-228 -219 -45 0
-229 -220 -43 0
-230 -221 -44 0
-231 -222 -45 0
-232 -223 -43 0
-233 -224 -44 0
-234 -225 -45 0
-235 -226 -43 0
-236 -227 -44 0
-237 -228 -45 0
-238 -229 -43 0
-239 -230 -44 0
-240 -231 -45 0
-241 -232 -43 0
-242 -233 -44 0
-243 -234 -45 0
-244 -235 -43 0
-245 -236 -44 0
-246 -237 -45 0
-247 -238 -43 0
-248 -239 -44 0
-249 -240 -45 0
-250 -241 -43 0
-251 -242 -44 0
-252 -243 -45 0
-253 -244 -43 0
-254 -245 -44 0
-255 -246 -45 0
-256 -247 -43 0
-257 -248 -44 0
-258 -249 -45 0
-259 -250 -43 0
-260 -251 -44 0
-261 -252 -45 0
-262 -253 -43 0
-263 -254 -44 0
-264 -255 -45 0
-265 -256 -43 0
-266 -257 -44 0
-267 -258 -45 0
-268 -259 -43 0
-269 -260 -44 0
-270 -261 -45 0
-271 -262 -43 0
-272 -263 -44 0
-273 -264 -45 0
-274 -265 -43 0
-275 -266 -44 0
-276 -267 -45 0
-277 -268 -43 0
-278 -269 -44 0
-279 -270 -45 0
-280 -271 -43 0
-281 -272 -44 0
-282 -273 -45 0
-283 -274 -43 0
-284 -275 -44 0
-285 -276 -45 0
-286 -277 -43 0
-287 -278 -44 0
-288 -279 -45 0
-289 -280 -43 0
-290 -281 -44 0
-291 -282 -45 0
-292 -283 -43 0
-293 -284 -44 0
-294 -285 -45 0
-295 -286 -43 0
-296 -287 -44 0
-297 -288 -45 0
-298 -289 -43 0
-299 -290 -44 0
-300 -291 -45 0
-301 -292 -43 0
-302 -293 -44 0
-303 -294 -45 0
-304 -295 -43 0
-305 -296 -44 0
-306 -297 -45 0
-307 -298 -43 0
-308 -299 -44 0
-309 -300 -45 0
-310 -301 -43 0
-311 -302 -44 0
-312 -303 -45 0
-313 -304 -43 0
-314 -305 -44 0
-315 -306 -45 0
-316 -307 -43 0
-317 -308 -44 0
-318 -309 -45 0
-319 -310 -43 0
-320 -311 -44 0
-321 -312 -45 0
-322 -313 -43 0
-323 -314 -44 0
-324 -315 -45 0
-325 -316 -43 0
-326 -317 -44 0
-327 -318 -45 0
-328 -319 -43 0
-329 -320 -44 0
-330 -321 -45 0
-331 -322 -43 0
-332 -323 -44 0
-333 -324 -45 0
-334 -325 -43 0
-335 -326 -44 0
-336 -327 -45 0
-337 -328 -43 0
-338 -329 -44 0
-339 -330 -45 0
-340 -331 -43 0
-341 -332 -44 0
-342 -333 -45 0
-343 -334 -43 0
-344 -335 -44 0
-345 -336 -45 0
-346 -337 -43 0
-347 -338 -44 0
-348 -339 -45 0
-349 -340 -43 0
-350 -341 -44 0
-351 -342 -45 0
-352 -343 -43 0
-353 -344 -44 0
-354 -345 -45 0
-355 -346 -43 0
-356 -347 -44 0
-357 -348 -45 0
-358 -349 -43 0
-359 -350 -44 0
-360 -351 -45 0
-361 -352 -43 0
-362 -353 -44 0
-363 -354 -45 0
-364 -355 -43 0
-365 -356 -44 0
-366 -357 -45 0
-367 -358 -43 0
-368 -359 -44 0
-369 -360 -45 0
-370 -361 -43 0
-371 -362 -44 0
-372 -363 -45 0
-373 -364 -43 0
-374 -365 -44 0
-375 -366 -45 0
-58 -13 -1 0
-59 -14 -2 0
-60 -15 -3 0
-58 -16 -4 0
-59 -17 -5 0
-60 -18 -6 0
-58 -19 -7 0
-59 -20 -8 0
-60 -21 -9 0
-58 -22 -10 0
-59 -23 -11 0
-60 -24 -12 0
-58 -25 -13 0
-59 -26 -14 0
-60 -27 -15 0
-58 -28 -16 0
-59 -29 -17 0
-60 -30 -18 0
-58 -31 -19 0
-59 -32 -20 0
-60 -33 -21 0
-58 -34 -22 0
-59 -35 -23 0
-60 -36 -24 0
-58 -37 -25 0
-59 -38 -26 0
-60 -39 -27 0
-58 -40 -28 0
-59 -41 -29 0
-60 -42 -30 0
-58 -43 -31 0
-59 -44 -32 0
-60 -45 -33 0
-58 -46 -34 0
-59 -47 -35 0
-60 -48 -36 0
-58 -49 -37 0
-59 -50 -38 0
-60 -51 -39 0
-58 -52 -40 0
-59 -53 -41 0
-60 -54 -42 0
-58 -55 -43 0
-59 -56 -44 0
-60 -57 -45 0
-58 -46 0
-59 -47 0
-60 -48 0
-61 -58 -49 0
-62 -59 -50 0
-63 -60 -51 0
-64 -58 -52 0
-65 -59 -53 0
-66 -60 -54 0
-67 -58 -55 0
-68 -59 -56 0
-69 -60 -57 0
-70 -58 0
-71 -59 0
-72 -60 0
-73 -61 -58 0
-74 -62 -59 0
-75 -63 -60 0
-76 -64 -58 0
-77 -65 -59 0
-78 -66 -60 0
-79 -67 -58 0
-80 -68 -59 0
-81 -69 -60 0
-82 -70 -58 0
-83 -71 -59 0
-84 -72 -60 0
-85 -73 -58 0
-86 -74 -59 0
-87 -75 -60 0
-88 -76 -58 0
-89 -77 -59 0
-90 -78 -60 0
-91 -79 -58 0
-92 -80 -59 0
-93 -81 -60 0
-94 -82 -58 0
-95 -83 -59 0
-96 -84 -60 0
-97 -85 -58 0
-98 -86 -59 0
-99 -87 -60 0
-100 -88 -58 0
-101 -89 -59 0
-102 -90 -60 0
-103 -91 -58 0
-104 -92 -59 0
-105 -93 -60 0
-106 -94 -58 0
-107 -95 -59 0
-108 -96 -60 0
-109 -97 -58 0
-110 -98 -59 0
-111 -99 -60 0
-112 -100 -58 0
-113 -101 -59 0
-114 -102 -60 0
-115 -103 -58 0
-116 -104 -59 0
-117 -105 -60 0
-118 -106 -58 0
-119 -107 -59 0
-120 -108 -60 0
-121 -109 -58 0
-122 -110 -59 0
-123 -111 -60 0
-124 -112 -58 0
-125 -113 -59 0
-126 -114 -60 0
-127 -115 -58 0
-128 -116 -59 0
-129 -117 -60 0
-130 -118 -58 0
-131 -119 -59 0
-132 -120 -60 0
-133 -121 -58 0
-134 -122 -59 0
-135 -123 -60 0
-136 -124 -58 0
-137 -125 -59 0
-138 -126 -60 0
-139 -127 -58 0
-140 -128 -59 0
-141 -129 -60 0
-142 -130 -58 0
-143 -131 -59 0
-144 -132 -60 0
-145 -133 -58 0
-146 -134 -59 0
-147 -135 -60 0
-148 -136 -58 0
-149 -137 -59 0
-150 -138 -60 0
-151 -139 -58 0
-152 -140 -59 0
-153 -141 -60 0
-154 -142 -58 0
-155 -143 -59 0
-156 -144 -60 0
-157 -145 -58 0
-158 -146 -59 0
-159 -147 -60 0
-160 -148 -58 0
-161 -149 -59 0
-162 -150 -60 0
-163 -151 -58 0
-164 -152 -59 0
-165 -153 -60 0
-166 -154 -58 0
-167 -155 -59 0
-168 -156 -60 0
-169 -157 -58 0
-170 -158 -59 0
-171 -159 -60 0
-172 -160 -58 0
-173 -161 -59 0
-174 -162 -60 0
-175 -163 -58 0
-176 -164 -59 0
-177 -165 -60 0
-178 -166 -58 0
-179 -167 -59 0
-180 -168 -60 0
-181 -169 -58 0
-182 -170 -59 0
-183 -171 -60 0
-184 -172 -58 0
-185 -173 -59 0
-186 -174 -60 0
-187 -175 -58 0
-188 -176 -59 0
-189 -177 -60 0
-190 -178 -58 0
-191 -179 -59 0
-192 -180 -60 0
-193 -181 -58 0
-194 -182 -59 0
-195 -183 -60 0
-196 -184 -58 0
-197 -185 -59 0
-198 -186 -60 0
-199 -187 -58 0
-200 -188 -59 0
-201 -189 -60 0
-202 -190 -58 0
-203 -191 -59 0
-204 -192 -60 0
-205 -193 -58 0
-206 -194 -59 0
-207 -195 -60 0
-208 -196 -58 0
-209 -197 -59 0
-210 -198 -60 0
-211 -199 -58 0
-212 -200 -59 0
-213 -201 -60 0
-214 -202 -58 0
-215 -203 -59 0
-216 -204 -60 0
-217 -205 -58 0
-218 -206 -59 0
-219 -207 -60 0
-220 -208 -58 0
-221 -209 -59 0
-222 -210 -60 0
-223 -211 -58 0
-224 -212 -59 0
-225 -213 -60 0
-226 -214 -58 0
-227 -215 -59 0
-228 -216 -60 0
-229 -217 -58 0
-230 -218 -59 0
-231 -219 -60 0
-232 -220 -58 0
-233 -221 -59 0
-234 -222 -60 0
-235 -223 -58 0
-236 -224 -59 0
-237 -225 -60 0
-238 -226 -58 0
-239 -227 -59 0
-240 -228 -60 0
-241 -229 -58 0
-242 -230 -59 0
-243 -231 -60 0
-244 -232 -58 0
-245 -233 -59 0
-246 -234 -60 0
-247 -235 -58 0
-248 -236 -59 0
-249 -237 -60 0
-250 -238 -58 0
-251 -239 -59 0
-252 -240 -60 0
-253 -241 -58 0
-254 -242 -59 0
-255 -243 -60 0
-256 -244 -58 0
-257 -245 -59 0
-258 -246 -60 0
-259 -247 -58 0
-260 -248 -59 0
-261 -249 -60 0
-262 -250 -58 0
-263 -251 -59 0
-264 -252 -60 0
-265 -253 -58 0
-266 -254 -59 0
-267 -255 -60 0
-268 -256 -58 0
-269 -257 -59 0
-270 -258 -60 0
-271 -259 -58 0
-272 -260 -59 0
-273 -261 -60 0
-274 -262 -58 0
-275 -263 -59 0
-276 -264 -60 0
-277 -265 -58 0
-278 -266 -59 0
-279 -267 -60 0
-280 -268 -58 0
-281 -269 -59 0
-282 -270 -60 0
-283 -271 -58 0
-284 -272 -59 0
-285 -273 -60 0
-286 -274 -58 0
-287 -275 -59 0
-288 -276 -60 0
-289 -277 -58 0
-290 -278 -59 0
-291 -279 -60 0
-292 -280 -58 0
-293 -281 -59 0
-294 -282 -60 0
-295 -283 -58 0
-296 -284 -59 0
-297 -285 -60 0
-298 -286 -58 0
-299 -287 -59 0
-300 -288 -60 0
-301 -289 -58 0
-302 -290 -59 0
-303 -291 -60 0
-304 -292 -58 0
-305 -293 -59 0
-306 -294 -60 0
-307 -295 -58 0
-308 -296 -59 0
-309 -297 -60 0
-310 -298 -58 0
-311 -299 -59 0
-312 -300 -60 0
-313 -301 -58 0
-314 -302 -59 0
-315 -303 -60 0
-316 -304 -58 0
-317 -305 -59 0
-318 -306 -60 0
-319 -307 -58 0
-320 -308 -59 0
-321 -309 -60 0
-322 -310 -58 0
-323 -311 -59 0
-324 -312 -60 0
-325 -313 -58 0
-326 -314 -59 0
-327 -315 -60 0
-328 -316 -58 0
-329 -317 -59 0
-330 -318 -60 0
-331 -319 -58 0
-332 -320 -59 0
-333 -321 -60 0
-334 -322 -58 0
-335 -323 -59 0
-336 -324 -60 0
-337 -325 -58 0
-338 -326 -59 0
-339 -327 -60 0
-340 -328 -58 0
-341 -329 -59 0
-342 -330 -60 0
-343 -331 -58 0
-344 -332 -59 0
-345 -333 -60 0
-346 -334 -58 0
-347 -335 -59 0
-348 -336 -60 0
-349 -337 -58 0
-350 -338 -59 0
-351 -339 -60 0
-352 -340 -58 0
-353 -341 -59 0
-354 -342 -60 0
-355 -343 -58 0
-356 -344 -59 0
-357 -345 -60 0
-358 -346 -58 0
-359 -347 -59 0
-360 -348 -60 0
-361 -349 -58 0
-362 -350 -59 0
-363 -351 -60 0
-364 -352 -58 0
-365 -353 -59 0
-366 -354 -60 0
-367 -355 -58 0
-368 -356 -59 0
-369 -357 -60 0
-370 -358 -58 0
-371 -359 -59 0
-372 -360 -60 0
-373 -361 -58 0
-374 -362 -59 0
-375 -363 -60 0
-73 -16 -1 0
-74 -17 -2 0
-75 -18 -3 0
-73 -19 -4 0
-74 -20 -5 0
-75 -21 -6 0
-73 -22 -7 0
-74 -23 -8 0
-75 -24 -9 0
-73 -25 -10 0
-74 -26 -11 0
-75 -27 -12 0
-73 -28 -13 0
-74 -29 -14 0
-75 -30 -15 0
-73 -31 -16 0
-74 -32 -17 0
-75 -33 -18 0
-73 -34 -19 0
-74 -35 -20 0
-75 -36 -21 0
-73 -37 -22 0
-74 -38 -23 0
-75 -39 -24 0
-73 -40 -25 0
-74 -41 -26 0
-75 -42 -27 0
-73 -43 -28 0
-74 -44 -29 0
-75 -45 -30 0
-73 -46 -31 0
-74 -47 -32 0
-75 -48 -33 0
-73 -49 -34 0
-74 -50 -35 0
-75 -51 -36 0
-73 -52 -37 0
-74 -53 -38 0
-75 -54 -39 0
-73 -55 -40 0
-74 -56 -41 0
-75 -57 -42 0
-73 -58 -43 0
-74 -59 -44 0
-75 -60 -45 0
-73 -61 -46 0
-74 -62 -47 0
-75 -63 -48 0
-73 -64 -49 0
-74 -65 -50 0
-75 -66 -51 0
-73 -67 -52 0
-74 -68 -53 0
-75 -69 -54 0
-73 -70 -55 0
-74 -71 -56 0
-75 -72 -57 0
-73 -58 0
-74 -59 0
-75 -60 0
-76 -73 -61 0
-77 -74 -62 0
-78 -75 -63 0
-79 -73 -64 0
-80 -74 -65 0
-81 -75 -66 0
-82 -73 -67 0
-83 -74 -68 0
-84 -75 -69 0
-85 -73 -70 0
-86 -74 -71 0
-87 -75 -72 0
-88 -73 0
-89 -74 0
-90 -75 0
-91 -76 -73 0
-92 -77 -74 0
-93 -78 -75 0
-94 -79 -73 0
-95 -80 -74 0
-96 -81 -75 0
-97 -82 -73 0
-98 -83 -74 0
-99 -84 -75 0
-100 -85 -73 0
-101 -86 -74 0
-102 -87 -75 0
-103 -88 -73 0
-104 -89 -74 0
-105 -90 -75 0
-106 -91 -73 0
-107 -92 -74 0
-108 -93 -75 0
-109 -94 -73 0
-110 -95 -74 0
-111 -96 -75 0
-112 -97 -73 0
-113 -98 -74 0
-114 -99 -75 0
-115 -100 -73 0
-116 -101 -74 0
-117 -102 -75 0
-118 -103 -73 0
-119 -104 -74 0
-120 -105 -75 0
-121 -106 -73 0
-122 -107 -74 0
-123 -108 -75 0
-124 -109 -73 0
-125 -110 -74 0
-126 -111 -75 0
-127 -112 -73 0
-128 -113 -74 0
-129 -114 -75 0
-130 -115 -73 0
-131 -116 -74 0
-132 -117 -75 0
-133 -118 -73 0
-134 -119 -74 0
-135 -120 -75 0
-136 -121 -73 0
-137 -122 -74 0
-138 -123 -75 0
-139 -124 -73 0
-140 -125 -74 0
-141 -126 -75 0
-142 -127 -73 0
-143 -128 -74 0
-144 -129 -75 0
-145 -130 -73 0
-146 -131 -74 0
-147 -132 -75 0
-148 -133 -73 0
-149 -134 -74 0
-150 -135 -75 0
-151 -136 -73 0
-152 -137 -74 0
-153 -138 -75 0
-154 -139 -73 0
-155 -140 -74 0
-156 -141 -75 0
-157 -142 -73 0
-158 -143 -74 0
-159 -144 -75 0
-160 -145 -73 0
-161 -146 -74 0
-162 -147 -75 0
-163 -148 -73 0
-164 -149 -74 0
-165 -150 -75 0
-166 -151 -73 0
-167 -152 -74 0
-168 -153 -75 0
-169 -154 -73 0
-170 -155 -74 0
-171 -156 -75 0
-172 -157 -73 0
-173 -158 -74 0
-174 -159 -75 0
-175 -160 -73 0
-176 -161 -74 0
-177 -162 -75 0
-178 -163 -73 0
-179 -164 -74 0
-180 -165 -75 0
-181 -166 -73 0
-182 -167 -74 0
-183 -168 -75 0
-184 -169 -73 0
-185 -170 -74 0
-186 -171 -75 0
-187 -172 -73 0
-188 -173 -74 0
-189 -174 -75 0
-190 -175 -73 0
-191 -176 -74 0
-192 -177 -75 0
-193 -178 -73 0
-194 -179 -74 0
-195 -180 -75 0
-196 -181 -73 0
-197 -182 -74 0
-198 -183 -75 0
-199 -184 -73 0
-200 -185 -74 0
-201 -186 -75 0
-202 -187 -73 0
-203 -188 -74 0
-204 -189 -75 0
-205 -190 -73 0
-206 -191 -74 0
-207 -192 -75 0
-208 -193 -73 0
-209 -194 -74 0
-210 -195 -75 0
-211 -196 -73 0
-212 -197 -74 0
-213 -198 -75 0
-214 -199 -73 0
-215 -200 -74 0
-216 -201 -75 0
-217 -202 -73 0
-218 -203 -74 0
-219 -204 -75 0
-220 -205 -73 0
-221 -206 -74 0
-222 -207 -75 0
-223 -208 -73 0
-224 -209 -74 0
-225 -210 -75 0
-226 -211 -73 0
-227 -212 -74 0
-228 -213 -75 0
-229 -214 -73 0
-230 -215 -74 0
-231 -216 -75 0
-232 -217 -73 0
-233 -218 -74 0
-234 -219 -75 0
-235 -220 -73 0
-236 -221 -74 0
-237 -222 -75 0
-238 -223 -73 0
-239 -224 -74 0
-240 -225 -75 0
-241 -226 -73 0
-242 -227 -74 0
-243 -228 -75 0
-244 -229 -73 0
-245 -230 -74 0
-246 -231 -75 0
-247 -232 -73 0
-248 -233 -74 0
-249 -234 -75 0
-250 -235 -73 0
-251 -236 -74 0
-252 -237 -75 0
-253 -238 -73 0
-254 -239 -74 0
-255 -240 -75 0
-256 -241 -73 0
-257 -242 -74 0
-258 -243 -75 0
-259 -244 -73 0
-260 -245 -74 0
-261 -246 -75 0
-262 -247 -73 0
-263 -248 -74 0
-264 -249 -75 0
-265 -250 -73 0
-266 -251 -74 0
-267 -252 -75 0
-268 -253 -73 0
-269 -254 -74 0
-270 -255 -75 0
-271 -256 -73 0
-272 -257 -74 0
-273 -258 -75 0
-274 -259 -73 0
-275 -260 -74 0
-276 -261 -75 0
-277 -262 -73 0
-278 -263 -74 0
-279 -264 -75 0
-280 -265 -73 0
-281 -266 -74 0
-282 -267 -75 0
-283 -268 -73 0
-284 -269 -74 0
-285 -270 -75 0
-286 -271 -73 0
-287 -272 -74 0
-288 -273 -75 0
-289 -274 -73 0
-290 -275 -74 0
-291 -276 -75 0
-292 -277 -73 0
-293 -278 -74 0
-294 -279 -75 0
-295 -280 -73 0
-296 -281 -74 0
-297 -282 -75 0
-298 -283 -73 0
-299 -284 -74 0
-300 -285 -75 0
-301 -286 -73 0
-302 -287 -74 0
-303 -288 -75 0
-304 -289 -73 0
-305 -290 -74 0
-306 -291 -75 0
-307 -292 -73 0
-308 -293 -74 0
-309 -294 -75 0
-310 -295 -73 0
-311 -296 -74 0
-312 -297 -75 0
-313 -298 -73 0
-314 -299 -74 0
-315 -300 -75 0
-316 -301 -73 0
-317 -302 -74 0
-318 -303 -75 0
-319 -304 -73 0
-320 -305 -74 0
-321 -306 -75 0
-322 -307 -73 0
-323 -308 -74 0
-324 -309 -75 0
-325 -310 -73 0
-326 -311 -74 0
-327 -312 -75 0
-328 -313 -73 0
-329 -314 -74 0
-330 -315 -75 0
-331 -316 -73 0
-332 -317 -74 0
-333 -318 -75 0
-334 -319 -73 0
-335 -320 -74 0
-336 -321 -75 0
-337 -322 -73 0
-338 -323 -74 0
-339 -324 -75 0
-340 -325 -73 0
-341 -326 -74 0
-342 -327 -75 0
-343 -328 -73 0
-344 -329 -74 0
-345 -330 -75 0
-346 -331 -73 0
-347 -332 -74 0
-348 -333 -75 0
-349 -334 -73 0
-350 -335 -74 0
-351 -336 -75 0
-352 -337 -73 0
-353 -338 -74 0
-354 -339 -75 0
-355 -340 -73 0
-356 -341 -74 0
-357 -342 -75 0
-358 -343 -73 0
-359 -344 -74 0
-360 -345 -75 0
-361 -346 -73 0
-362 -347 -74 0
-363 -348 -75 0
-364 -349 -73 0
-365 -350 -74 0
-366 -351 -75 0
-367 -352 -73 0
-368 -353 -74 0
-369 -354 -75 0
-370 -355 -73 0
-371 -356 -74 0
-372 -357 -75 0
-373 -358 -73 0
-374 -359 -74 0
-375 -360 -75 0
-88 -19 -1 0
-89 -20 -2 0
-90 -21 -3 0
-88 -22 -4 0
-89 -23 -5 0
-90 -24 -6 0
-88 -25 -7 0
-89 -26 -8 0
-90 -27 -9 0
-88 -28 -10 0
-89 -29 -11 0
-90 -30 -12 0
-88 -31 -13 0
-89 -32 -14 0
-90 -33 -15 0
-88 -34 -16 0
-89 -35 -17 0
-90 -36 -18 0
-88 -37 -19 0
-89 -38 -20 0
-90 -39 -21 0
-88 -40 -22 0
-89 -41 -23 0
-90 -42 -24 0
-88 -43 -25 0
-89 -44 -26 0
-90 -45 -27 0
-88 -46 -28 0
-89 -47 -29 0
-90 -48 -30 0
-88 -49 -31 0
-89 -50 -32 0
-90 -51 -33 0
-88 -52 -34 0
-89 -53 -35 0
-90 -54 -36 0
-88 -55 -37 0
-89 -56 -38 0
-90 -57 -39 0
-88 -58 -40 0
-89 -59 -41 0
-90 -60 -42 0
-88 -61 -43 0
-89 -62 -44 0
-90 -63 -45 0
-88 -64 -46 0
-89 -65 -47 0
-90 -66 -48 0
-88 -67 -49 0
-89 -68 -50 0
-90 -69 -51 0
-88 -70 -52 0
-89 -71 -53 0
-90 -72 -54 0
-88 -73 -55 0
-89 -74 -56 0
-90 -75 -57 0
-88 -76 -58 0
-89 -77 -59 0
-90 -78 -60 0
-88 -79 -61 0
-89 -80 -62 0
-90 -81 -63 0
-88 -82 -64 0
-89 -83 -65 0
-90 -84 -66 0
-88 -85 -67 0
-89 -86 -68 0
-90 -87 -69 0
-88 -70 0
-89 -71 0
-90 -72 0
-91 -88 -73 0
-92 -89 -74 0
-93 -90 -75 0
-94 -88 -76 0
-95 -89 -77 0
-96 -90 -78 0
-97 -88 -79 0
-98 -89 -80 0
-99 -90 -81 0
-100 -88 -82 0
-101 -89 -83 0
-102 -90 -84 0
-103 -88 -85 0
-104 -89 -86 0
-105 -90 -87 0
-106 -88 0
-107 -89 0
-108 -90 0
-109 -91 -88 0
-110 -92 -89 0
-111 -93 -90 0
-112 -94 -88 0
-113 -95 -89 0
-114 -96 -90 0
-115 -97 -88 0
-116 -98 -89 0
-117 -99 -90 0
-118 -100 -88 0
-119 -101 -89 0
-120 -102 -90 0
-121 -103 -88 0
-122 -104 -89 0
-123 -105 -90 0
-124 -106 -88 0
-125 -107 -89 0
-126 -108 -90 0
-127 -109 -88 0
-128 -110 -89 0
-129 -111 -90 0
-130 -112 -88 0
-131 -113 -89 0
-132 -114 -90 0
-133 -115 -88 0
-134 -116 -89 0
-135 -117 -90 0
-136 -118 -88 0
-137 -119 -89 0
-138 -120 -90 0
-139 -121 -88 0
-140 -122 -89 0
-141 -123 -90 0
-142 -124 -88 0
-143 -125 -89 0
-144 -126 -90 0
-145 -127 -88 0
-146 -128 -89 0
-147 -129 -90 0
-148 -130 -88 0
-149 -131 -89 0
-150 -132 -90 0
-151 -133 -88 0
-152 -134 -89 0
-153 -135 -90 0
-154 -136 -88 0
-155 -137 -89 0
-156 -138 -90 0
-157 -139 -88 0
-158 -140 -89 0
-159 -141 -90 0
-160 -142 -88 0
-161 -143 -89 0
-162 -144 -90 0
-163 -145 -88 0
-164 -146 -89 0
-165 -147 -90 0
-166 -148 -88 0
-167 -149 -89 0
-168 -150 -90 0
-169 -151 -88 0
-170 -152 -89 0
-171 -153 -90 0
-172 -154 -88 0
-173 -155 -89 0
-174 -156 -90 0
-175 -157 -88 0
-176 -158 -89 0
-177 -159 -90 0
-178 -160 -88 0
-179 -161 -89 0
-180 -162 -90 0
-181 -163 -88 0
-182 -164 -89 0
-183 -165 -90 0
-184 -166 -88 0
-185 -167 -89 0
-186 -168 -90 0
-187 -169 -88 0
-188 -170 -89 0
-189 -171 -90 0
-190 -172 -88 0
-191 -173 -89 0
-192 -174 -90 0
-193 -175 -88 0
-194 -176 -89 0
-195 -177 -90 0
-196 -178 -88 0
-197 -179 -89 0
-198 -180 -90 0
-199 -181 -88 0
-200 -182 -89 0
-201 -183 -90 0
-202 -184 -88 0
-203 -185 -89 0
-204 -186 -90 0
-205 -187 -88 0
-206 -188 -89 0
-207 -189 -90 0
-208 -190 -88 0
-209 -191 -89 0
-210 -192 -90 0
-211 -193 -88 0
-212 -194 -89 0
-213 -195 -90 0
-214 -196 -88 0
-215 -197 -89 0
-216 -198 -90 0
-217 -199 -88 0
-218 -200 -89 0
-219 -201 -90 0
-220 -202 -88 0
-221 -203 -89 0
-222 -204 -90 0
-223 -205 -88 0
-224 -206 -89 0
-225 -207 -90 0
-226 -208 -88 0
-227 -209 -89 0
-228 -210 -90 0
-229 -211 -88 0
-230 -212 -89 0
-231 -213 -90 0
-232 -214 -88 0
-233 -215 -89 0
-234 -216 -90 0
-235 -217 -88 0
-236 -218 -89 0
-237 -219 -90 0
-238 -220 -88 0
-239 -221 -89 0
-240 -222 -90 0
-241 -223 -88 0
-242 -224 -89 0
-243 -225 -90 0
-244 -226 -88 0
-245 -227 -89 0
-246 -228 -90 0
-247 -229 -88 0
-248 -230 -89 0
-249 -231 -90 0
-250 -232 -88 0
-251 -233 -89 0
-252 -234 -90 0
-253 -235 -88 0
-254 -236 -89 0
-255 -237 -90 0
-256 -238 -88 0
-257 -239 -89 0
-258 -240 -90 0
-259 -241 -88 0
-260 -242 -89 0
-261 -243 -90 0
-262 -244 -88 0
-263 -245 -89 0
-264 -246 -90 0
-265 -247 -88 0
-266 -248 -89 0
-267 -249 -90 0
-268 -250 -88 0
-269 -251 -89 0
-270 -252 -90 0
-271 -253 -88 0
-272 -254 -89 0
-273 -255 -90 0
-274 -256 -88 0
-275 -257 -89 0
-276 -258 -90 0
-277 -259 -88 0
-278 -260 -89 0
-279 -261 -90 0
-280 -262 -88 0
-281 -263 -89 0
-282 -264 -90 0
-283 -265 -88 0
-284 -266 -89 0
-285 -267 -90 0
-286 -268 -88 0
-287 -269 -89 0
-288 -270 -90 0
-289 -271 -88 0
-290 -272 -89 0
-291 -273 -90 0
-292 -274 -88 0
-293 -275 -89 0
-294 -276 -90 0
-295 -277 -88 0
-296 -278 -89 0
-297 -279 -90 0
-298 -280 -88 0
-299 -281 -89 0
-300 -282 -90 0
-301 -283 -88 0
-302 -284 -89 0
-303 -285 -90 0
-304 -286 -88 0
-305 -287 -89 0
-306 -288 -90 0
-307 -289 -88 0
-308 -290 -89 0
-309 -291 -90 0
-310 -292 -88 0
-311 -293 -89 0
-312 -294 -90 0
-313 -295 -88 0
-314 -296 -89 0
-315 -297 -90 0
-316 -298 -88 0
-317 -299 -89 0
-318 -300 -90 0
-319 -301 -88 0
-320 -302 -89 0
-321 -303 -90 0
-322 -304 -88 0
-323 -305 -89 0
-324 -306 -90 0
-325 -307 -88 0
-326 -308 -89 0
-327 -309 -90 0
-328 -310 -88 0
-329 -311 -89 0
-330 -312 -90 0
-331 -313 -88 0
-332 -314 -89 0
-333 -315 -90 0
-334 -316 -88 0
-335 -317 -89 0
-336 -318 -90 0
-337 -319 -88 0
-338 -320 -89 0
-339 -321 -90 0
-340 -322 -88 0
-341 -323 -89 0
-342 -324 -90 0
-343 -325 -88 0
-344 -326 -89 0
-345 -327 -90 0
-346 -328 -88 0
-347 -329 -89 0
-348 -330 -90 0
-349 -331 -88 0
-350 -332 -89 0
-351 -333 -90 0
-352 -334 -88 0
-353 -335 -89 0
-354 -336 -90 0
-355 -337 -88 0
-356 -338 -89 0
-357 -339 -90 0
-358 -340 -88 0
-359 -341 -89 0
-360 -342 -90 0
-361 -343 -88 0
-362 -344 -89 0
-363 -345 -90 0
-364 -346 -88 0
-365 -347 -89 0
-366 -348 -90 0
-367 -349 -88 0
-368 -350 -89 0
-369 -351 -90 0
-370 -352 -88 0
-371 -353 -89 0
-372 -354 -90 0
-373 -355 -88 0
-374 -356 -89 0
-375 -357 -90 0
-103 -22 -1 0
-104 -23 -2 0
-105 -24 -3 0
-103 -25 -4 0
-104 -26 -5 0
-105 -27 -6 0
-103 -28 -7 0
-104 -29 -8 0
-105 -30 -9 0
-103 -31 -10 0
-104 -32 -11 0
-105 -33 -12 0
-103 -34 -13 0
-104 -35 -14 0
-105 -36 -15 0
-103 -37 -16 0
-104 -38 -17 0
-105 -39 -18 0
-103 -40 -19 0
-104 -41 -20 0
-105 -42 -21 0
-103 -43 -22 0
-104 -44 -23 0
-105 -45 -24 0
-103 -46 -25 0
-104 -47 -26 0
-105 -48 -27 0
-103 -49 -28 0
-104 -50 -29 0
-105 -51 -30 0
-103 -52 -31 0
-104 -53 -32 0
-105 -54 -33 0
-103 -55 -34 0
-104 -56 -35 0
-105 -57 -36 0
-103 -58 -37 0
-104 -59 -38 0
-105 -60 -39 0
-103 -61 -40 0
-104 -62 -41 0
-105 -63 -42 0
-103 -64 -43 0
-104 -65 -44 0
-105 -66 -45 0
-103 -67 -46 0
-104 -68 -47 0
-105 -69 -48 0
-103 -70 -49 0
-104 -71 -50 0
-105 -72 -51 0
-103 -73 -52 0
-104 -74 -53 0
-105 -75 -54 0
-103 -76 -55 0
-104 -77 -56 0
-105 -78 -57 0
-103 -79 -58 0
-104 -80 -59 0
-105 -81 -60 0
-103 -82 -61 0
-104 -83 -62 0
-105 -84 -63 0
-103 -85 -64 0
-104 -86 -65 0
-105 -87 -66 0
-103 -88 -67 0
-104 -89 -68 0
-105 -90 -69 0
-103 -91 -70 0
-104 -92 -71 0
-105 -93 -72 0
-103 -94 -73 0
-104 -95 -74 0
-105 -96 -75 0
-103 -97 -76 0
-104 -98 -77 0
-105 -99 -78 0
-103 -100 -79 0
-104 -101 -80 0
-105 -102 -81 0
-103 -82 0
-104 -83 0
-105 -84 0
-106 -103 -85 0
-107 -104 -86 0
-108 -105 -87 0
-109 -103 -88 0
-110 -104 -89 0
-111 -105 -90 0
-112 -103 -91 0
-113 -104 -92 0
-114 -105 -93 0
-115 -103 -94 0
-116 -104 -95 0
-117 -105 -96 0
-118 -103 -97 0
-119 -104 -98 0
-120 -105 -99 0
-121 -103 -100 0
-122 -104 -101 0
-123 -105 -102 0
-124 -103 0
-125 -104 0
-126 -105 0
-127 -106 -103 0
-128 -107 -104 0
-129 -108 -105 0
-130 -109 -103 0
-131 -110 -104 0
-132 -111 -105 0
-133 -112 -103 0
-134 -113 -104 0
-135 -114 -105 0
-136 -115 -103 0
-137 -116 -104 0
-138 -117 -105 0
-139 -118 -103 0
-140 -119 -104 0
-141 -120 -105 0
-142 -121 -103 0
-143 -122 -104 0
-144 -123 -105 0
-145 -124 -103 0
-146 -125 -104 0
-147 -126 -105 0
-148 -127 -103 0
-149 -128 -104 0
-150 -129 -105 0
-151 -130 -103 0
-152 -131 -104 0
-153 -132 -105 0
-154 -133 -103 0
-155 -134 -104 0
-156 -135 -105 0
-157 -136 -103 0
-158 -137 -104 0
-159 -138 -105 0
-160 -139 -103 0
-161 -140 -104 0
-162 -141 -105 0
-163 -142 -103 0
-164 -143 -104 0
-165 -144 -105 0
-166 -145 -103 0
-167 -146 -104 0
-168 -147 -105 0
-169 -148 -103 0
-170 -149 -104 0
-171 -150 -105 0
-172 -151 -103 0
-173 -152 -104 0
-174 -153 -105 0
-175 -154 -103 0
-176 -155 -104 0
-177 -156 -105 0
-178 -157 -103 0
-179 -158 -104 0
-180 -159 -105 0
-181 -160 -103 0
-182 -161 -104 0
-183 -162 -105 0
-184 -163 -103 0
-185 -164 -104 0
-186 -165 -105 0
-187 -166 -103 0
-188 -167 -104 0
-189 -168 -105 0
-190 -169 -103 0
-191 -170 -104 0
-192 -171 -105 0
-193 -172 -103 0
-194 -173 -104 0
-195 -174 -105 0
-196 -175 -103 0
-197 -176 -104 0
-198 -177 -105 0
-199 -178 -103 0
-200 -179 -104 0
-201 -180 -105 0
-202 -181 -103 0
-203 -182 -104 0
-204 -183 -105 0
-205 -184 -103 0
-206 -185 -104 0
-207 -186 -105 0
-208 -187 -103 0
-209 -188 -104 0
-210 -189 -105 0
-211 -190 -103 0
-212 -191 -104 0
-213 -192 -105 0
-214 -193 -103 0
-215 -194 -104 0
-216 -195 -105 0
-217 -196 -103 0
-218 -197 -104 0
-219 -198 -105 0
-220 -199 -103 0
-221 -200 -104 0
-222 -201 -105 0
-223 -202 -103 0
-224 -203 -104 0
-225 -204 -105 0
-226 -205 -103 0
-227 -206 -104 0
-228 -207 -105 0
-229 -208 -103 0
-230 -209 -104 0
-231 -210 -105 0
-232 -211 -103 0
-233 -212 -104 0
-234 -213 -105 0
-235 -214 -103 0
-236 -215 -104 0
-237 -216 -105 0
-238 -217 -103 0
-239 -218 -104 0
-240 -219 -105 0
-241 -220 -103 0
-242 -221 -104 0
-243 -222 -105 0
-244 -223 -103 0
-245 -224 -104 0
-246 -225 -105 0
-247 -226 -103 0
-248 -227 -104 0
-249 -228 -105 0
-250 -229 -103 0
-251 -230 -104 0
-252 -231 -105 0
-253 -232 -103 0
-254 -233 -104 0
-255 -234 -105 0
-256 -235 -103 0
-257 -236 -104 0
-258 -237 -105 0
-259 -238 -103 0
-260 -239 -104 0
-261 -240 -105 0
-262 -241 -103 0
-263 -242 -104 0
-264 -243 -105 0
-265 -244 -103 0
-266 -245 -104 0
-267 -246 -105 0
-268 -247 -103 0
-269 -248 -104 0
-270 -249 -105 0
-271 -250 -103 0
-272 -251 -104 0
-273 -252 -105 0
-274 -253 -103 0
-275 -254 -104 0
-276 -255 -105 0
-277 -256 -103 0
-278 -257 -104 0
-279 -258 -105 0
-280 -259 -103 0
-281 -260 -104 0
-282 -261 -105 0
-283 -262 -103 0
-284 -263 -104 0
-285 -264 -105 0
-286 -265 -103 0
-287 -266 -104 0
-288 -267 -105 0
-289 -268 -103 0
-290 -269 -104 0
-291 -270 -105 0
-292 -271 -103 0
-293 -272 -104 0
-294 -273 -105 0
-295 -274 -103 0
-296 -275 -104 0
-297 -276 -105 0
-298 -277 -103 0
-299 -278 -104 0
-300 -279 -105 0
-301 -280 -103 0
-302 -281 -104 0
-303 -282 -105 0
-304 -283 -103 0
-305 -284 -104 0
-306 -285 -105 0
-307 -286 -103 0
-308 -287 -104 0
-309 -288 -105 0
-310 -289 -103 0
-311 -290 -104 0
-312 -291 -105 0
-313 -292 -103 0
-314 -293 -104 0
-315 -294 -105 0
-316 -295 -103 0
-317 -296 -104 0
-318 -297 -105 0
-319 -298 -103 0
-320 -299 -104 0
-321 -300 -105 0
-322 -301 -103 0
-323 -302 -104 0
-324 -303 -105 0
-325 -304 -103 0
-326 -305 -104 0
-327 -306 -105 0
-328 -307 -103 0
-329 -308 -104 0
-330 -309 -105 0
-331 -310 -103 0
-332 -311 -104 0
-333 -312 -105 0
-334 -313 -103 0
-335 -314 -104 0
-336 -315 -105 0
-337 -316 -103 0
-338 -317 -104 0
-339 -318 -105 0
-340 -319 -103 0
-341 -320 -104 0
-342 -321 -105 0
-343 -322 -103 0
-344 -323 -104 0
-345 -324 -105 0
-346 -325 -103 0
-347 -326 -104 0
-348 -327 -105 0
-349 -328 -103 0
-350 -329 -104 0
-351 -330 -105 0
-352 -331 -103 0
-353 -332 -104 0
-354 -333 -105 0
-355 -334 -103 0
-356 -335 -104 0
-357 -336 -105 0
-358 -337 -103 0
-359 -338 -104 0
-360 -339 -105 0
-361 -340 -103 0
-362 -341 -104 0
-363 -342 -105 0
-364 -343 -103 0
-365 -344 -104 0
-366 -345 -105 0
-367 -346 -103 0
-368 -347 -104 0
-369 -348 -105 0
-370 -349 -103 0
-371 -350 -104 0
-372 -351 -105 0
-373 -352 -103 0
-374 -353 -104 0
-375 -354 -105 0
-118 -25 -1 0
-119 -26 -2 0
-120 -27 -3 0
-118 -28 -4 0
-119 -29 -5 0
-120 -30 -6 0
-118 -31 -7 0
-119 -32 -8 0
-120 -33 -9 0
-118 -34 -10 0
-119 -35 -11 0
-120 -36 -12 0
-118 -37 -13 0
-119 -38 -14 0
-120 -39 -15 0
-118 -40 -16 0
-119 -41 -17 0
-120 -42 -18 0
-118 -43 -19 0
-119 -44 -20 0
-120 -45 -21 0
-118 -46 -22 0
-119 -47 -23 0
-120 -48 -24 0
-118 -49 -25 0
-119 -50 -26 0
-120 -51 -27 0
-118 -52 -28 0
-119 -53 -29 0
-120 -54 -30 0
-118 -55 -31 0
-119 -56 -32 0
-120 -57 -33 0
-118 -58 -34 0
-119 -59 -35 0
-120 -60 -36 0
-118 -61 -37 0
-119 -62 -38 0
-120 -63 -39 0
-118 -64 -40 0
-119 -65 -41 0
-120 -66 -42 0
-118 -67 -43 0
-119 -68 -44 0
-120 -69 -45 0
-118 -70 -46 0
-119 -71 -47 0
-120 -72 -48 0
-118 -73 -49 0
-119 -74 -50 0
-120 -75 -51 0
-118 -76 -52 0
-119 -77 -53 0
-120 -78 -54 0
-118 -79 -55 0
-119 -80 -56 0
-120 -81 -57 0
-118 -82 -58 0
-119 -83 -59 0
-120 -84 -60 0
-118 -85 -61 0
-119 -86 -62 0
-120 -87 -63 0
-118 -88 -64 0
-119 -89 -65 0
-120 -90 -66 0
-118 -91 -67 0
-119 -92 -68 0
-120 -93 -69 0
-118 -94 -70 0
-119 -95 -71 0
-120 -96 -72 0
-118 -97 -73 0
-119 -98 -74 0
-120 -99 -75 0
-118 -100 -76 0
-119 -101 -77 0
-120 -102 -78 0
-118 -103 -79 0
-119 -104 -80 0
-120 -105 -81 0
-118 -106 -82 0
-119 -107 -83 0
-120 -108 -84 0
-118 -109 -85 0
-119 -110 -86 0
-120 -111 -87 0
-118 -112 -88 0
-119 -113 -89 0
-120 -114 -90 0
-118 -115 -91 0
-119 -116 -92 0
-120 -117 -93 0
-118 -94 0
-119 -95 0
-120 -96 0
-121 -118 -97 0
-122 -119 -98 0
-123 -120 -99 0
-124 -118 -100 0
-125 -119 -101 0
-126 -120 -102 0
-127 -118 -103 0
-128 -119 -104 0
-129 -120 -105 0
-130 -118 -106 0
-131 -119 -107 0
-132 -120 -108 0
-133 -118 -109 0
-134 -119 -110 0
-135 -120 -111 0
-136 -118 -112 0
-137 -119 -113 0
-138 -120 -114 0
-139 -118 -115 0
-140 -119 -116 0
-141 -120 -117 0
-142 -118 0
-143 -119 0
-144 -120 0
-145 -121 -118 0
-146 -122 -119 0
-147 -123 -120 0
-148 -124 -118 0
-149 -125 -119 0
-150 -126 -120 0
-151 -127 -118 0
-152 -128 -119 0
-153 -129 -120 0
-154 -130 -118 0
-155 -131 -119 0
-156 -132 -120 0
-157 -133 -118 0
-158 -134 -119 0
-159 -135 -120 0
-160 -136 -118 0
-161 -137 -119 0
-162 -138 -120 0
-163 -139 -118 0
-164 -140 -119 0
-165 -141 -120 0
-166 -142 -118 0
-167 -143 -119 0
-168 -144 -120 0
-169 -145 -118 0
-170 -146 -119 0
-171 -147 -120 0
-172 -148 -118 0
-173 -149 -119 0
-174 -150 -120 0
-175 -151 -118 0
-176 -152 -119 0
-177 -153 -120 0
-178 -154 -118 0
-179 -155 -119 0
-180 -156 -120 0
-181 -157 -118 0
-182 -158 -119 0
-183 -159 -120 0
-184 -160 -118 0
-185 -161 -119 0
-186 -162 -120 0
-187 -163 -118 0
-188 -164 -119 0
-189 -165 -120 0
-190 -166 -118 0
-191 -167 -119 0
-192 -168 -120 0
-193 -169 -118 0
-194 -170 -119 0
-195 -171 -120 0
-196 -172 -118 0
-197 -173 -119 0
-198 -174 -120 0
-199 -175 -118 0
-200 -176 -119 0
-201 -177 -120 0
-202 -178 -118 0
-203 -179 -119 0
-204 -180 -120 0
-205 -181 -118 0
-206 -182 -119 0
-207 -183 -120 0
-208 -184 -118 0
-209 -185 -119 0
-210 -186 -120 0
-211 -187 -118 0
-212 -188 -119 0
-213 -189 -120 0
-214 -190 -118 0
-215 -191 -119 0
-216 -192 -120 0
-217 -193 -118 0
-218 -194 -119 0
-219 -195 -120 0
-220 -196 -118 0
-221 -197 -119 0
-222 -198 -120 0
-223 -199 -118 0
-224 -200 -119 0
-225 -201 -120 0
-226 -202 -118 0
-227 -203 -119 0
-228 -204 -120 0
-229 -205 -118 0
-230 -206 -119 0
-231 -207 -120 0
-232 -208 -118 0
-233 -209 -119 0
-234 -210 -120 0
-235 -211 -118 0
-236 -212 -119 0
-237 -213 -120 0
-238 -214 -118 0
-239 -215 -119 0
-240 -216 -120 0
-241 -217 -118 0
-242 -218 -119 0
-243 -219 -120 0
-244 -220 -118 0
-245 -221 -119 0
-246 -222 -120 0
-247 -223 -118 0
-248 -224 -119 0
-249 -225 -120 0
-250 -226 -118 0
-251 -227 -119 0
-252 -228 -120 0
-253 -229 -118 0
-254 -230 -119 0
-255 -231 -120 0
-256 -232 -118 0
-257 -233 -119 0
-258 -234 -120 0
-259 -235 -118 0
-260 -236 -119 0
-261 -237 -120 0
-262 -238 -118 0
-263 -239 -119 0
-264 -240 -120 0
-265 -241 -118 0
-266 -242 -119 0
-267 -243 -120 0
-268 -244 -118 0
-269 -245 -119 0
-270 -246 -120 0
-271 -247 -118 0
-272 -248 -119 0
-273 -249 -120 0
-274 -250 -118 0
-275 -251 -119 0
-276 -252 -120 0
-277 -253 -118 0
-278 -254 -119 0
-279 -255 -120 0
-280 -256 -118 0
-281 -257 -119 0
-282 -258 -120 0
-283 -259 -118 0
-284 -260 -119 0
-285 -261 -120 0
-286 -262 -118 0
-287 -263 -119 0
-288 -264 -120 0
-289 -265 -118 0
-290 -266 -119 0
-291 -267 -120 0
-292 -268 -118 0
-293 -269 -119 0
-294 -270 -120 0
-295 -271 -118 0
-296 -272 -119 0
-297 -273 -120 0
-298 -274 -118 0
-299 -275 -119 0
-300 -276 -120 0
-301 -277 -118 0
-302 -278 -119 0
-303 -279 -120 0
-304 -280 -118 0
-305 -281 -119 0
-306 -282 -120 0
-307 -283 -118 0
-308 -284 -119 0
-309 -285 -120 0
-310 -286 -118 0
-311 -287 -119 0
-312 -288 -120 0
-313 -289 -118 0
-314 -290 -119 0
-315 -291 -120 0
-316 -292 -118 0
-317 -293 -119 0
-318 -294 -120 0
-319 -295 -118 0
-320 -296 -119 0
-321 -297 -120 0
-322 -298 -118 0
-323 -299 -119 0
-324 -300 -120 0
-325 -301 -118 0
-326 -302 -119 0
-327 -303 -120 0
-328 -304 -118 0
-329 -305 -119 0
-330 -306 -120 0
-331 -307 -118 0
-332 -308 -119 0
-333 -309 -120 0
-334 -310 -118 0
-335 -311 -119 0
-336 -312 -120 0
-337 -313 -118 0
-338 -314 -119 0
-339 -315 -120 0
-340 -316 -118 0
-341 -317 -119 0
-342 -318 -120 0
-343 -319 -118 0
-344 -320 -119 0
-345 -321 -120 0
-346 -322 -118 0
-347 -323 -119 0
-348 -324 -120 0
-349 -325 -118 0
-350 -326 -119 0
-351 -327 -120 0
-352 -328 -118 0
-353 -329 -119 0
-354 -330 -120 0
-355 -331 -118 0
-356 -332 -119 0
-357 -333 -120 0
-358 -334 -118 0
-359 -335 -119 0
-360 -336 -120 0
-361 -337 -118 0
-362 -338 -119 0
-363 -339 -120 0
-364 -340 -118 0
-365 -341 -119 0
-366 -342 -120 0
-367 -343 -118 0
-368 -344 -119 0
-369 -345 -120 0
-370 -346 -118 0
-371 -347 -119 0
-372 -348 -120 0
-373 -349 -118 0
-374 -350 -119 0
-375 -351 -120 0
-133 -28 -1 0
-134 -29 -2 0
-135 -30 -3 0
-133 -31 -4 0
-134 -32 -5 0
-135 -33 -6 0
-133 -34 -7 0
-134 -35 -8 0
-135 -36 -9 0
-133 -37 -10 0
-134 -38 -11 0
-135 -39 -12 0
-133 -40 -13 0
-134 -41 -14 0
-135 -42 -15 0
-133 -43 -16 0
-134 -44 -17 0
-135 -45 -18 0
-133 -46 -19 0
-134 -47 -20 0
-135 -48 -21 0
-133 -49 -22 0
-134 -50 -23 0
-135 -51 -24 0
-133 -52 -25 0
-134 -53 -26 0
-135 -54 -27 0
-133 -55 -28 0
-134 -56 -29 0
-135 -57 -30 0
-133 -58 -31 0
-134 -59 -32 0
-135 -60 -33 0
-133 -61 -34 0
-134 -62 -35 0
-135 -63 -36 0
-133 -64 -37 0
-134 -65 -38 0
-135 -66 -39 0
-133 -67 -40 0
-134 -68 -41 0
-135 -69 -42 0
-133 -70 -43 0
-134 -71 -44 0
-135 -72 -45 0
-133 -73 -46 0
-134 -74 -47 0
-135 -75 -48 0
-133 -76 -49 0
-134 -77 -50 0
-135 -78 -51 0
-133 -79 -52 0
-134 -80 -53 0
-135 -81 -54 0
-133 -82 -55 0
-134 -83 -56 0
-135 -84 -57 0
-133 -85 -58 0
-134 -86 -59 0
-135 -87 -60 0
-133 -88 -61 0
-134 -89 -62 0
-135 -90 -63 0
-133 -91 -64 0
-134 -92 -65 0
-135 -93 -66 0
-133 -94 -67 0
-134 -95 -68 0
-135 -96 -69 0
-133 -97 -70 0
-134 -98 -71 0
-135 -99 -72 0
-133 -100 -73 0
-134 -101 -74 0
-135 -102 -75 0
-133 -103 -76 0
-134 -104 -77 0
-135 -105 -78 0
-133 -106 -79 0
-134 -107 -80 0
-135 -108 -81 0
-133 -109 -82 0
-134 -110 -83 0
-135 -111 -84 0
-133 -112 -85 0
-134 -113 -86 0
-135 -114 -87 0
-133 -115 -88 0
-134 -116 -89 0
-135 -117 -90 0
-133 -118 -91 0
-134 -119 -92 0
-135 -120 -93 0
-133 -121 -94 0
-134 -122 -95 0
-135 -123 -96 0
-133 -124 -97 0
-134 -125 -98 0
-135 -126 -99 0
-133 -127 -100 0
-134 -128 -101 0
-135 -129 -102 0
-133 -130 -103 0
-134 -131 -104 0
-135 -132 -105 0
-133 -106 0
-134 -107 0
-135 -108 0
-136 -133 -109 0
-137 -134 -110 0
-138 -135 -111 0
-139 -133 -112 0
-140 -134 -113 0
-141 -135 -114 0
-142 -133 -115 0
-143 -134 -116 0
-144 -135 -117 0
-145 -133 -118 0
-146 -134 -119 0
-147 -135 -120 0
-148 -133 -121 0
-149 -134 -122 0
-150 -135 -123 0
-151 -133 -124 0
-152 -134 -125 0
-153 -135 -126 0
-154 -133 -127 0
-155 -134 -128 0
-156 -135 -129 0
-157 -133 -130 0
-158 -134 -131 0
-159 -135 -132 0
-160 -133 0
-161 -134 0
-162 -135 0
-163 -136 -133 0
-164 -137 -134 0
-165 -138 -135 0
-166 -139 -133 0
-167 -140 -134 0
-168 -141 -135 0
-169 -142 -133 0
-170 -143 -134 0
-171 -144 -135 0
-172 -145 -133 0
-173 -146 -134 0
-174 -147 -135 0
-175 -148 -133 0
-176 -149 -134 0
-177 -150 -135 0
-178 -151 -133 0
-179 -152 -134 0
-180 -153 -135 0
-181 -154 -133 0
-182 -155 -134 0
-183 -156 -135 0
-184 -157 -133 0
-185 -158 -134 0
-186 -159 -135 0
-187 -160 -133 0
-188 -161 -134 0
-189 -162 -135 0
-190 -163 -133 0
-191 -164 -134 0
-192 -165 -135 0
-193 -166 -133 0
-194 -167 -134 0
-195 -168 -135 0
-196 -169 -133 0
-197 -170 -134 0
-198 -171 -135 0
-199 -172 -133 0
-200 -173 -134 0
-201 -174 -135 0
-202 -175 -133 0
-203 -176 -134 0
-204 -177 -135 0
-205 -178 -133 0
-206 -179 -134 0
-207 -180 -135 0
-208 -181 -133 0
-209 -182 -134 0
-210 -183 -135 0
-211 -184 -133 0
-212 -185 -134 0
-213 -186 -135 0
-214 -187 -133 0
-215 -188 -134 0
-216 -189 -135 0
-217 -190 -133 0
-218 -191 -134 0
-219 -192 -135 0
-220 -193 -133 0
-221 -194 -134 0
-222 -195 -135 0
-223 -196 -133 0
-224 -197 -134 0
-225 -198 -135 0
-226 -199 -133 0
-227 -200 -134 0
-228 -201 -135 0
-229 -202 -133 0
-230 -203 -134 0
-231 -204 -135 0
-232 -205 -133 0
-233 -206 -134 0
-234 -207 -135 0
-235 -208 -133 0
-236 -209 -134 0
-237 -210 -135 0
-238 -211 -133 0
-239 -212 -134 0
-240 -213 -135 0
-241 -214 -133 0
-242 -215 -134 0
-243 -216 -135 0
-244 -217 -133 0
-245 -218 -134 0
-246 -219 -135 0
-247 -220 -133 0
-248 -221 -134 0
-249 -222 -135 0
-250 -223 -133 0
-251 -224 -134 0
-252 -225 -135 0
-253 -226 -133 0
-254 -227 -134 0
-255 -228 -135 0
-256 -229 -133 0
-257 -230 -134 0
-258 -231 -135 0
-259 -232 -133 0
-260 -233 -134 0
-261 -234 -135 0
-262 -235 -133 0
-263 -236 -134 0
-264 -237 -135 0
-265 -238 -133 0
-266 -239 -134 0
-267 -240 -135 0
-268 -241 -133 0
-269 -242 -134 0
-270 -243 -135 0
-271 -244 -133 0
-272 -245 -134 0
-273 -246 -135 0
-274 -247 -133 0
-275 -248 -134 0
-276 -249 -135 0
-277 -250 -133 0
-278 -251 -134 0
-279 -252 -135 0
-280 -253 -133 0
-281 -254 -134 0
-282 -255 -135 0
-283 -256 -133 0
-284 -257 -134 0
-285 -258 -135 0
-286 -259 -133 0
-287 -260 -134 0
-288 -261 -135 0
-289 -262 -133 0
-290 -263 -134 0
-291 -264 -135 0
-292 -265 -133 0
-293 -266 -134 0
-294 -267 -135 0
-295 -268 -133 0
-296 -269 -134 0
-297 -270 -135 0
-298 -271 -133 0
-299 -272 -134 0
-300 -273 -135 0
-301 -274 -133 0
-302 -275 -134 0
-303 -276 -135 0
-304 -277 -133 0
-305 -278 -134 0
-306 -279 -135 0
-307 -280 -133 0
-308 -281 -134 0
-309 -282 -135 0
-310 -283 -133 0
-311 -284 -134 0
-312 -285 -135 0
-313 -286 -133 0
-314 -287 -134 0
-315 -288 -135 0
-316 -289 -133 0
-317 -290 -134 0
-318 -291 -135 0
-319 -292 -133 0
-320 -293 -134 0
-321 -294 -135 0
-322 -295 -133 0
-323 -296 -134 0
-324 -297 -135 0
-325 -298 -133 0
-326 -299 -134 0
-327 -300 -135 0
-328 -301 -133 0
-329 -302 -134 0
-330 -303 -135 0
-331 -304 -133 0
-332 -305 -134 0
-333 -306 -135 0
-334 -307 -133 0
-335 -308 -134 0
-336 -309 -135 0
-337 -310 -133 0
-338 -311 -134 0
-339 -312 -135 0
-340 -313 -133 0
-341 -314 -134 0
-342 -315 -135 0
-343 -316 -133 0
-344 -317 -134 0
-345 -318 -135 0
-346 -319 -133 0
-347 -320 -134 0
-348 -321 -135 0
-349 -322 -133 0
-350 -323 -134 0
-351 -324 -135 0
-352 -325 -133 0
-353 -326 -134 0
-354 -327 -135 0
-355 -328 -133 0
-356 -329 -134 0
-357 -330 -135 0
-358 -331 -133 0
-359 -332 -134 0
-360 -333 -135 0
-361 -334 -133 0
-362 -335 -134 0
-363 -336 -135 0
-364 -337 -133 0
-365 -338 -134 0
-366 -339 -135 0
-367 -340 -133 0
-368 -341 -134 0
-369 -342 -135 0
-370 -343 -133 0
-371 -344 -134 0
-372 -345 -135 0
-373 -346 -133 0
-374 -347 -134 0
-375 -348 -135 0
-148 -31 -1 0
-149 -32 -2 0
-150 -33 -3 0
-148 -34 -4 0
-149 -35 -5 0
-150 -36 -6 0
-148 -37 -7 0
-149 -38 -8 0
-150 -39 -9 0
-148 -40 -10 0
-149 -41 -11 0
-150 -42 -12 0
-148 -43 -13 0
-149 -44 -14 0
-150 -45 -15 0
-148 -46 -16 0
-149 -47 -17 0
-150 -48 -18 0
-148 -49 -19 0
-149 -50 -20 0
-150 -51 -21 0
-148 -52 -22 0
-149 -53 -23 0
-150 -54 -24 0
-148 -55 -25 0
-149 -56 -26 0
-150 -57 -27 0
-148 -58 -28 0
-149 -59 -29 0
-150 -60 -30 0
-148 -61 -31 0
-149 -62 -32 0
-150 -63 -33 0
-148 -64 -34 0
-149 -65 -35 0
-150 -66 -36 0
-148 -67 -37 0
-149 -68 -38 0
-150 -69 -39 0
-148 -70 -40 0
-149 -71 -41 0
-150 -72 -42 0
-148 -73 -43 0
-149 -74 -44 0
-150 -75 -45 0
-148 -76 -46 0
-149 -77 -47 0
-150 -78 -48 0
-148 -79 -49 0
-149 -80 -50 0
-150 -81 -51 0
-148 -82 -52 0
-149 -83 -53 0
-150 -84 -54 0
-148 -85 -55 0
-149 -86 -56 0
-150 -87 -57 0
-148 -88 -58 0
-149 -89 -59 0
-150 -90 -60 0
-148 -91 -61 0
-149 -92 -62 0
-150 -93 -63 0
-148 -94 -64 0
-149 -95 -65 0
-150 -96 -66 0
-148 -97 -67 0
-149 -98 -68 0
-150 -99 -69 0
-148 -100 -70 0
-149 -101 -71 0
-150 -102 -72 0
-148 -103 -73 0
-149 -104 -74 0
-150 -105 -75 0
-148 -106 -76 0
-149 -107 -77 0
-150 -108 -78 0
-148 -109 -79 0
-149 -110 -80 0
-150 -111 -81 0
-148 -112 -82 0
-149 -113 -83 0
-150 -114 -84 0
-148 -115 -85 0
-149 -116 -86 0
-150 -117 -87 0
-148 -118 -88 0
-149 -119 -89 0
-150 -120 -90 0
-148 -121 -91 0
-149 -122 -92 0
-150 -123 -93 0
-148 -124 -94 0
-149 -125 -95 0
-150 -126 -96 0
-148 -127 -97 0
-149 -128 -98 0
-150 -129 -99 0
-148 -130 -100 0
-149 -131 -101 0
-150 -132 -102 0
-148 -133 -103 0
-149 -134 -104 0
-150 -135 -105 0
-148 -136 -106 0
-149 -137 -107 0
-150 -138 -108 0
-148 -139 -109 0
-149 -140 -110 0
-150 -141 -111 0
-148 -142 -112 0
-149 -143 -113 0
-150 -144 -114 0
-148 -145 -115 0
-149 -146 -116 0
-150 -147 -117 0
-148 -118 0
-149 -119 0
-150 -120 0
-151 -148 -121 0
-152 -149 -122 0
-153 -150 -123 0
-154 -148 -124 0
-155 -149 -125 0
-156 -150 -126 0
-157 -148 -127 0
-158 -149 -128 0
-159 -150 -129 0
-160 -148 -130 0
-161 -149 -131 0
-162 -150 -132 0
-163 -148 -133 0
-164 -149 -134 0
-165 -150 -135 0
-166 -148 -136 0
-167 -149 -137 0
-168 -150 -138 0
-169 -148 -139 0
-170 -149 -140 0
-171 -150 -141 0
-172 -148 -142 0
-173 -149 -143 0
-174 -150 -144 0
-175 -148 -145 0
-176 -149 -146 0
-177 -150 -147 0
-178 -148 0
-179 -149 0
-180 -150 0
-181 -151 -148 0
-182 -152 -149 0
-183 -153 -150 0
-184 -154 -148 0
-185 -155 -149 0
-186 -156 -150 0
-187 -157 -148 0
-188 -158 -149 0
-189 -159 -150 0
-190 -160 -148 0
-191 -161 -149 0
-192 -162 -150 0
-193 -163 -148 0
-194 -164 -149 0
-195 -165 -150 0
-196 -166 -148 0
-197 -167 -149 0
-198 -168 -150 0
-199 -169 -148 0
-200 -170 -149 0
-201 -171 -150 0
-202 -172 -148 0
-203 -173 -149 0
-204 -174 -150 0
-205 -175 -148 0
-206 -176 -149 0
-207 -177 -150 0
-208 -178 -148 0
-209 -179 -149 0
-210 -180 -150 0
-211 -181 -148 0
-212 -182 -149 0
-213 -183 -150 0
-214 -184 -148 0
-215 -185 -149 0
-216 -186 -150 0
-217 -187 -148 0
-218 -188 -149 0
-219 -189 -150 0
-220 -190 -148 0
-221 -191 -149 0
-222 -192 -150 0
-223 -193 -148 0
-224 -194 -149 0
-225 -195 -150 0
-226 -196 -148 0
-227 -197 -149 0
-228 -198 -150 0
-229 -199 -148 0
-230 -200 -149 0
-231 -201 -150 0
-232 -202 -148 0
-233 -203 -149 0
-234 -204 -150 0
-235 -205 -148 0
-236 -206 -149 0
-237 -207 -150 0
-238 -208 -148 0
-239 -209 -149 0
-240 -210 -150 0
-241 -211 -148 0
-242 -212 -149 0
-243 -213 -150 0
-244 -214 -148 0
-245 -215 -149 0
-246 -216 -150 0
-247 -217 -148 0
-248 -218 -149 0
-249 -219 -150 0
-250 -220 -148 0
-251 -221 -149 0
-252 -222 -150 0
-253 -223 -148 0
-254 -224 -149 0
-255 -225 -150 0
-256 -226 -148 0
-257 -227 -149 0
-258 -228 -150 0
-259 -229 -148 0
-260 -230 -149 0
-261 -231 -150 0
-262 -232 -148 0
-263 -233 -149 0
-264 -234 -150 0
-265 -235 -148 0
-266 -236 -149 0
-267 -237 -150 0
-268 -238 -148 0
-269 -239 -149 0
-270 -240 -150 0
-271 -241 -148 0
-272 -242 -149 0
-273 -243 -150 0
-274 -244 -148 0
-275 -245 -149 0
-276 -246 -150 0
-277 -247 -148 0
-278 -248 -149 0
-279 -249 -150 0
-280 -250 -148 0
-281 -251 -149 0
-282 -252 -150 0
-283 -253 -148 0
-284 -254 -149 0
-285 -255 -150 0
-286 -256 -148 0
-287 -257 -149 0
-288 -258 -150 0
-289 -259 -148 0
-290 -260 -149 0
-291 -261 -150 0
-292 -262 -148 0
-293 -263 -149 0
-294 -264 -150 0
-295 -265 -148 0
-296 -266 -149 0
-297 -267 -150 0
-298 -268 -148 0
-299 -269 -149 0
-300 -270 -150 0
-301 -271 -148 0
-302 -272 -149 0
-303 -273 -150 0
-304 -274 -148 0
-305 -275 -149 0
-306 -276 -150 0
-307 -277 -148 0
-308 -278 -149 0
-309 -279 -150 0
-310 -280 -148 0
-311 -281 -149 0
-312 -282 -150 0
-313 -283 -148 0
-314 -284 -149 0
-315 -285 -150 0
-316 -286 -148 0
-317 -287 -149 0
-318 -288 -150 0
-319 -289 -148 0
-320 -290 -149 0
-321 -291 -150 0
-322 -292 -148 0
-323 -293 -149 0
-324 -294 -150 0
-325 -295 -148 0
-326 -296 -149 0
-327 -297 -150 0
-328 -298 -148 0
-329 -299 -149 0
-330 -300 -150 0
-331 -301 -148 0
-332 -302 -149 0
-333 -303 -150 0
-334 -304 -148 0
-335 -305 -149 0
-336 -306 -150 0
-337 -307 -148 0
-338 -308 -149 0
-339 -309 -150 0
-340 -310 -148 0
-341 -311 -149 0
-342 -312 -150 0
-343 -313 -148 0
-344 -314 -149 0
-345 -315 -150 0
-346 -316 -148 0
-347 -317 -149 0
-348 -318 -150 0
-349 -319 -148 0
-350 -320 -149 0
-351 -321 -150 0
-352 -322 -148 0
-353 -323 -149 0
-354 -324 -150 0
-355 -325 -148 0
-356 -326 -149 0
-357 -327 -150 0
-358 -328 -148 0
-359 -329 -149 0
-360 -330 -150 0
-361 -331 -148 0
-362 -332 -149 0
-363 -333 -150 0
-364 -334 -148 0
-365 -335 -149 0
-366 -336 -150 0
-367 -337 -148 0
-368 -338 -149 0
-369 -339 -150 0
-370 -340 -148 0
-371 -341 -149 0
-372 -342 -150 0
-373 -343 -148 0
-374 -344 -149 0
-375 -345 -150 0
-163 -34 -1 0
-164 -35 -2 0
-165 -36 -3 0
-163 -37 -4 0
-164 -38 -5 0
-165 -39 -6 0
-163 -40 -7 0
-164 -41 -8 0
-165 -42 -9 0
-163 -43 -10 0
-164 -44 -11 0
-165 -45 -12 0
-163 -46 -13 0
-164 -47 -14 0
-165 -48 -15 0
-163 -49 -16 0
-164 -50 -17 0
-165 -51 -18 0
-163 -52 -19 0
-164 -53 -20 0
-165 -54 -21 0
-163 -55 -22 0
-164 -56 -23 0
-165 -57 -24 0
-163 -58 -25 0
-164 -59 -26 0
-165 -60 -27 0
-163 -61 -28 0
-164 -62 -29 0
-165 -63 -30 0
-163 -64 -31 0
-164 -65 -32 0
-165 -66 -33 0
-163 -67 -34 0
-164 -68 -35 0
-165 -69 -36 0
-163 -70 -37 0
-164 -71 -38 0
-165 -72 -39 0
-163 -73 -40 0
-164 -74 -41 0
-165 -75 -42 0
-163 -76 -43 0
-164 -77 -44 0
-165 -78 -45 0
-163 -79 -46 0
-164 -80 -47 0
-165 -81 -48 0
-163 -82 -49 0
-164 -83 -50 0
-165 -84 -51 0
-163 -85 -52 0
-164 -86 -53 0
-165 -87 -54 0
-163 -88 -55 0
-164 -89 -56 0
-165 -90 -57 0
-163 -91 -58 0
-164 -92 -59 0
-165 -93 -60 0
-163 -94 -61 0
-164 -95 -62 0
-165 -96 -63 0
-163 -97 -64 0
-164 -98 -65 0
-165 -99 -66 0
-163 -100 -67 0
-164 -101 -68 0
-165 -102 -69 0
-163 -103 -70 0
-164 -104 -71 0
-165 -105 -72 0
-163 -106 -73 0
-164 -107 -74 0
-165 -108 -75 0
-163 -109 -76 0
-164 -110 -77 0
-165 -111 -78 0
-163 -112 -79 0
-164 -113 -80 0
-165 -114 -81 0
-163 -115 -82 0
-164 -116 -83 0
-165 -117 -84 0
-163 -118 -85 0
-164 -119 -86 0
-165 -120 -87 0
-163 -121 -88 0
-164 -122 -89 0
-165 -123 -90 0
-163 -124 -91 0
-164 -125 -92 0
-165 -126 -93 0
-163 -127 -94 0
-164 -128 -95 0
-165 -129 -96 0
-163 -130 -97 0
-164 -131 -98 0
-165 -132 -99 0
-163 -133 -100 0
-164 -134 -101 0
-165 -135 -102 0
-163 -136 -103 0
-164 -137 -104 0
-165 -138 -105 0
-163 -139 -106 0
-164 -140 -107 0
-165 -141 -108 0
-163 -142 -109 0
-164 -143 -110 0
-165 -144 -111 0
-163 -145 -112 0
-164 -146 -113 0
-165 -147 -114 0
-163 -148 -115 0
-164 -149 -116 0
-165 -150 -117 0
-163 -151 -118 0
-164 -152 -119 0
-165 -153 -120 0
-163 -154 -121 0
-164 -155 -122 0
-165 -156 -123 0
-163 -157 -124 0
-164 -158 -125 0
-165 -159 -126 0
-163 -160 -127 0
-164 -161 -128 0
-165 -162 -129 0
-163 -130 0
-164 -131 0
-165 -132 0
-166 -163 -133 0
-167 -164 -134 0
-168 -165 -135 0
-169 -163 -136 0
-170 -164 -137 0
-171 -165 -138 0
-172 -163 -139 0
-173 -164 -140 0
-174 -165 -141 0
-175 -163 -142 0
-176 -164 -143 0
-177 -165 -144 0
-178 -163 -145 0
-179 -164 -146 0
-180 -165 -147 0
-181 -163 -148 0
-182 -164 -149 0
-183 -165 -150 0
-184 -163 -151 0
-185 -164 -152 0
-186 -165 -153 0
-187 -163 -154 0
-188 -164 -155 0
-189 -165 -156 0
-190 -163 -157 0
-191 -164 -158 0
-192 -165 -159 0
-193 -163 -160 0
-194 -164 -161 0
-195 -165 -162 0
-196 -163 0
-197 -164 0
-198 -165 0
-199 -166 -163 0
-200 -167 -164 0
-201 -168 -165 0
-202 -169 -163 0
-203 -170 -164 0
-204 -171 -165 0
-205 -172 -163 0
-206 -173 -164 0
-207 -174 -165 0
-208 -175 -163 0
-209 -176 -164 0
-210 -177 -165 0
-211 -178 -163 0
-212 -179 -164 0
-213 -180 -165 0
-214 -181 -163 0
-215 -182 -164 0
-216 -183 -165 0
-217 -184 -163 0
-218 -185 -164 0
-219 -186 -165 0
-220 -187 -163 0
-221 -188 -164 0
-222 -189 -165 0
-223 -190 -163 0
-224 -191 -164 0
-225 -192 -165 0
-226 -193 -163 0
-227 -194 -164 0
-228 -195 -165 0
-229 -196 -163 0
-230 -197 -164 0
-231 -198 -165 0
-232 -199 -163 0
-233 -200 -164 0
-234 -201 -165 0
-235 -202 -163 0
-236 -203 -164 0
-237 -204 -165 0
-238 -205 -163 0
-239 -206 -164 0
-240 -207 -165 0
-241 -208 -163 0
-242 -209 -164 0
-243 -210 -165 0
-244 -211 -163 0
-245 -212 -164 0
-246 -213 -165 0
-247 -214 -163 0
-248 -215 -164 0
-249 -216 -165 0
-250 -217 -163 0
-251 -218 -164 0
-252 -219 -165 0
-253 -220 -163 0
-254 -221 -164 0
-255 -222 -165 0
-256 -223 -163 0
-257 -224 -164 0
-258 -225 -165 0
-259 -226 -163 0
-260 -227 -164 0
-261 -228 -165 0
-262 -229 -163 0
-263 -230 -164 0
-264 -231 -165 0
-265 -232 -163 0
-266 -233 -164 0
-267 -234 -165 0
-268 -235 -163 0
-269 -236 -164 0
-270 -237 -165 0
-271 -238 -163 0
-272 -239 -164 0
-273 -240 -165 0
-274 -241 -163 0
-275 -242 -164 0
-276 -243 -165 0
-277 -244 -163 0
-278 -245 -164 0
-279 -246 -165 0
-280 -247 -163 0
-281 -248 -164 0
-282 -249 -165 0
-283 -250 -163 0
-284 -251 -164 0
-285 -252 -165 0
-286 -253 -163 0
-287 -254 -164 0
-288 -255 -165 0
-289 -256 -163 0
-290 -257 -164 0
-291 -258 -165 0
-292 -259 -163 0
-293 -260 -164 0
-294 -261 -165 0
-295 -262 -163 0
-296 -263 -164 0
-297 -264 -165 0
-298 -265 -163 0
-299 -266 -164 0
-300 -267 -165 0
-301 -268 -163 0
-302 -269 -164 0
-303 -270 -165 0
-304 -271 -163 0
-305 -272 -164 0
-306 -273 -165 0
-307 -274 -163 0
-308 -275 -164 0
-309 -276 -165 0
-310 -277 -163 0
-311 -278 -164 0
-312 -279 -165 0
-313 -280 -163 0
-314 -281 -164 0
-315 -282 -165 0
-316 -283 -163 0
-317 -284 -164 0
-318 -285 -165 0
-319 -286 -163 0
-320 -287 -164 0
-321 -288 -165 0
-322 -289 -163 0
-323 -290 -164 0
-324 -291 -165 0
-325 -292 -163 0
-326 -293 -164 0
-327 -294 -165 0
-328 -295 -163 0
-329 -296 -164 0
-330 -297 -165 0
-331 -298 -163 0
-332 -299 -164 0
-333 -300 -165 0
-334 -301 -163 0
-335 -302 -164 0
-336 -303 -165 0
-337 -304 -163 0
-338 -305 -164 0
-339 -306 -165 0
-340 -307 -163 0
-341 -308 -164 0
-342 -309 -165 0
-343 -310 -163 0
-344 -311 -164 0
-345 -312 -165 0
-346 -313 -163 0
-347 -314 -164 0
-348 -315 -165 0
-349 -316 -163 0
-350 -317 -164 0
-351 -318 -165 0
-352 -319 -163 0
-353 -320 -164 0
-354 -321 -165 0
-355 -322 -163 0
-356 -323 -164 0
-357 -324 -165 0
-358 -325 -163 0
-359 -326 -164 0
-360 -327 -165 0
-361 -328 -163 0
-362 -329 -164 0
-363 -330 -165 0
-364 -331 -163 0
-365 -332 -164 0
-366 -333 -165 0
-367 -334 -163 0
-368 -335 -164 0
-369 -336 -165 0
-370 -337 -163 0
-371 -338 -164 0
-372 -339 -165 0
-373 -340 -163 0
-374 -341 -164 0
-375 -342 -165 0
-178 -37 -1 0
-179 -38 -2 0
-180 -39 -3 0
-178 -40 -4 0
-179 -41 -5 0
-180 -42 -6 0
-178 -43 -7 0
-179 -44 -8 0
-180 -45 -9 0
-178 -46 -10 0
-179 -47 -11 0
-180 -48 -12 0
-178 -49 -13 0
-179 -50 -14 0
-180 -51 -15 0
-178 -52 -16 0
-179 -53 -17 0
-180 -54 -18 0
-178 -55 -19 0
-179 -56 -20 0
-180 -57 -21 0
-178 -58 -22 0
-179 -59 -23 0
-180 -60 -24 0
-178 -61 -25 0
-179 -62 -26 0
-180 -63 -27 0
-178 -64 -28 0
-179 -65 -29 0
-180 -66 -30 0
-178 -67 -31 0
-179 -68 -32 0
-180 -69 -33 0
-178 -70 -34 0
-179 -71 -35 0
-180 -72 -36 0
-178 -73 -37 0
-179 -74 -38 0
-180 -75 -39 0
-178 -76 -40 0
-179 -77 -41 0
-180 -78 -42 0
-178 -79 -43 0
-179 -80 -44 0
-180 -81 -45 0
-178 -82 -46 0
-179 -83 -47 0
-180 -84 -48 0
-178 -85 -49 0
-179 -86 -50 0
-180 -87 -51 0
-178 -88 -52 0
-179 -89 -53 0
-180 -90 -54 0
-178 -91 -55 0
-179 -92 -56 0
-180 -93 -57 0
-178 -94 -58 0
-179 -95 -59 0
-180 -96 -60 0
-178 -97 -61 0
-179 -98 -62 0
-180 -99 -63 0
-178 -100 -64 0
-179 -101 -65 0
-180 -102 -66 0
-178 -103 -67 0
-179 -104 -68 0
-180 -105 -69 0
-178 -106 -70 0
-179 -107 -71 0
-180 -108 -72 0
-178 -109 -73 0
-179 -110 -74 0
-180 -111 -75 0
-178 -112 -76 0
-179 -113 -77 0
-180 -114 -78 0
-178 -115 -79 0
-179 -116 -80 0
-180 -117 -81 0
-178 -118 -82 0
-179 -119 -83 0
-180 -120 -84 0
-178 -121 -85 0
-179 -122 -86 0
-180 -123 -87 0
-178 -124 -88 0
-179 -125 -89 0
-180 -126 -90 0
-178 -127 -91 0
-179 -128 -92 0
-180 -129 -93 0
-178 -130 -94 0
-179 -131 -95 0
-180 -132 -96 0
-178 -133 -97 0
-179 -134 -98 0
-180 -135 -99 0
-178 -136 -100 0
-179 -137 -101 0
-180 -138 -102 0
-178 -139 -103 0
-179 -140 -104 0
-180 -141 -105 0
-178 -142 -106 0
-179 -143 -107 0
-180 -144 -108 0
-178 -145 -109 0
-179 -146 -110 0
-180 -147 -111 0
-178 -148 -112 0
-179 -149 -113 0
-180 -150 -114 0
-178 -151 -115 0
-179 -152 -116 0
-180 -153 -117 0
-178 -154 -118 0
-179 -155 -119 0
-180 -156 -120 0
-178 -157 -121 0
-179 -158 -122 0
-180 -159 -123 0
-178 -160 -124 0
-179 -161 -125 0
-180 -162 -126 0
-178 -163 -127 0
-179 -164 -128 0
-180 -165 -129 0
-178 -166 -130 0
-179 -167 -131 0
-180 -168 -132 0
-178 -169 -133 0
-179 -170 -134 0
-180 -171 -135 0
-178 -172 -136 0
-179 -173 -137 0
-180 -174 -138 0
-178 -175 -139 0
-179 -176 -140 0
-180 -177 -141 0
-178 -142 0
-179 -143 0
-180 -144 0
-181 -178 -145 0
-182 -179 -146 0
-183 -180 -147 0
-184 -178 -148 0
-185 -179 -149 0
-186 -180 -150 0
-187 -178 -151 0
-188 -179 -152 0
-189 -180 -153 0
-190 -178 -154 0
-191 -179 -155 0
-192 -180 -156 0
-193 -178 -157 0
-194 -179 -158 0
-195 -180 -159 0
-196 -178 -160 0
-197 -179 -161 0
-198 -180 -162 0
-199 -178 -163 0
-200 -179 -164 0
-201 -180 -165 0
-202 -178 -166 0
-203 -179 -167 0
-204 -180 -168 0
-205 -178 -169 0
-206 -179 -170 0
-207 -180 -171 0
-208 -178 -172 0
-209 -179 -173 0
-210 -180 -174 0
-211 -178 -175 0
-212 -179 -176 0
-213 -180 -177 0
-214 -178 0
-215 -179 0
-216 -180 0
-217 -181 -178 0
-218 -182 -179 0
-219 -183 -180 0
-220 -184 -178 0
-221 -185 -179 0
-222 -186 -180 0
-223 -187 -178 0
-224 -188 -179 0
-225 -189 -180 0
-226 -190 -178 0
-227 -191 -179 0
-228 -192 -180 0
-229 -193 -178 0
-230 -194 -179 0
-231 -195 -180 0
-232 -196 -178 0
-233 -197 -179 0
-234 -198 -180 0
-235 -199 -178 0
-236 -200 -179 0
-237 -201 -180 0
-238 -202 -178 0
-239 -203 -179 0
-240 -204 -180 0
-241 -205 -178 0
-242 -206 -179 0
-243 -207 -180 0
-244 -208 -178 0
-245 -209 -179 0
-246 -210 -180 0
-247 -211 -178 0
-248 -212 -179 0
-249 -213 -180 0
-250 -214 -178 0
-251 -215 -179 0
-252 -216 -180 0
-253 -217 -178 0
-254 -218 -179 0
-255 -219 -180 0
-256 -220 -178 0
-257 -221 -179 0
-258 -222 -180 0
-259 -223 -178 0
-260 -224 -179 0
-261 -225 -180 0
-262 -226 -178 0
-263 -227 -179 0
-264 -228 -180 0
-265 -229 -178 0
-266 -230 -179 0
-267 -231 -180 0
-268 -232 -178 0
-269 -233 -179 0
-270 -234 -180 0
-271 -235 -178 0
-272 -236 -179 0
-273 -237 -180 0
-274 -238 -178 0
-275 -239 -179 0
-276 -240 -180 0
-277 -241 -178 0
-278 -242 -179 0
-279 -243 -180 0
-280 -244 -178 0
-281 -245 -179 0
-282 -246 -180 0
-283 -247 -178 0
-284 -248 -179 0
-285 -249 -180 0
-286 -250 -178 0
-287 -251 -179 0
-288 -252 -180 0
-289 -253 -178 0
-290 -254 -179 0
-291 -255 -180 0
-292 -256 -178 0
-293 -257 -179 0
-294 -258 -180 0
-295 -259 -178 0
-296 -260 -179 0
-297 -261 -180 0
-298 -262 -178 0
-299 -263 -179 0
-300 -264 -180 0
-301 -265 -178 0
-302 -266 -179 0
-303 -267 -180 0
-304 -268 -178 0
-305 -269 -179 0
-306 -270 -180 0
-307 -271 -178 0
-308 -272 -179 0
-309 -273 -180 0
-310 -274 -178 0
-311 -275 -179 0
-312 -276 -180 0
-313 -277 -178 0
-314 -278 -179 0
-315 -279 -180 0
-316 -280 -178 0
-317 -281 -179 0
-318 -282 -180 0
-319 -283 -178 0
-320 -284 -179 0
-321 -285 -180 0
-322 -286 -178 0
-323 -287 -179 0
-324 -288 -180 0
-325 -289 -178 0
-326 -290 -179 0
-327 -291 -180 0
-328 -292 -178 0
-329 -293 -179 0
-330 -294 -180 0
-331 -295 -178 0
-332 -296 -179 0
-333 -297 -180 0
-334 -298 -178 0
-335 -299 -179 0
-336 -300 -180 0
-337 -301 -178 0
-338 -302 -179 0
-339 -303 -180 0
-340 -304 -178 0
-341 -305 -179 0
-342 -306 -180 0
-343 -307 -178 0
-344 -308 -179 0
-345 -309 -180 0
-346 -310 -178 0
-347 -311 -179 0
-348 -312 -180 0
-349 -313 -178 0
-350 -314 -179 0
-351 -315 -180 0
-352 -316 -178 0
-353 -317 -179 0
-354 -318 -180 0
-355 -319 -178 0
-356 -320 -179 0
-357 -321 -180 0
-358 -322 -178 0
-359 -323 -179 0
-360 -324 -180 0
-361 -325 -178 0
-362 -326 -179 0
-363 -327 -180 0
-364 -328 -178 0
-365 -329 -179 0
-366 -330 -180 0
-367 -331 -178 0
-368 -332 -179 0
-369 -333 -180 0
-370 -334 -178 0
-371 -335 -179 0
-372 -336 -180 0
-373 -337 -178 0
-374 -338 -179 0
-375 -339 -180 0
-193 -40 -1 0
-194 -41 -2 0
-195 -42 -3 0
-193 -43 -4 0
-194 -44 -5 0
-195 -45 -6 0
-193 -46 -7 0
-194 -47 -8 0
-195 -48 -9 0
-193 -49 -10 0
-194 -50 -11 0
-195 -51 -12 0
-193 -52 -13 0
-194 -53 -14 0
-195 -54 -15 0
-193 -55 -16 0
-194 -56 -17 0
-195 -57 -18 0
-193 -58 -19 0
-194 -59 -20 0
-195 -60 -21 0
-193 -61 -22 0
-194 -62 -23 0
-195 -63 -24 0
-193 -64 -25 0
-194 -65 -26 0
-195 -66 -27 0
-193 -67 -28 0
-194 -68 -29 0
-195 -69 -30 0
-193 -70 -31 0
-194 -71 -32 0
-195 -72 -33 0
-193 -73 -34 0
-194 -74 -35 0
-195 -75 -36 0
-193 -76 -37 0
-194 -77 -38 0
-195 -78 -39 0
-193 -79 -40 0
-194 -80 -41 0
-195 -81 -42 0
-193 -82 -43 0
-194 -83 -44 0
-195 -84 -45 0
-193 -85 -46 0
-194 -86 -47 0
-195 -87 -48 0
-193 -88 -49 0
-194 -89 -50 0
-195 -90 -51 0
-193 -91 -52 0
-194 -92 -53 0
-195 -93 -54 0
-193 -94 -55 0
-194 -95 -56 0
-195 -96 -57 0
-193 -97 -58 0
-194 -98 -59 0
-195 -99 -60 0
-193 -100 -61 0
-194 -101 -62 0
-195 -102 -63 0
-193 -103 -64 0
-194 -104 -65 0
-195 -105 -66 0
-193 -106 -67 0
-194 -107 -68 0
-195 -108 -69 0
-193 -109 -70 0
-194 -110 -71 0
-195 -111 -72 0
-193 -112 -73 0
-194 -113 -74 0
-195 -114 -75 0
-193 -115 -76 0
-194 -116 -77 0
-195 -117 -78 0
-193 -118 -79 0
-194 -119 -80 0
-195 -120 -81 0
-193 -121 -82 0
-194 -122 -83 0
-195 -123 -84 0
-193 -124 -85 0
-194 -125 -86 0
-195 -126 -87 0
-193 -127 -88 0
-194 -128 -89 0
-195 -129 -90 0
-193 -130 -91 0
-194 -131 -92 0
-195 -132 -93 0
-193 -133 -94 0
-194 -134 -95 0
-195 -135 -96 0
-193 -136 -97 0
-194 -137 -98 0
-195 -138 -99 0
-193 -139 -100 0
-194 -140 -101 0
-195 -141 -102 0
-193 -142 -103 0
-194 -143 -104 0
-195 -144 -105 0
-193 -145 -106 0
-194 -146 -107 0
-195 -147 -108 0
-193 -148 -109 0
-194 -149 -110 0
-195 -150 -111 0
-193 -151 -112 0
-194 -152 -113 0
-195 -153 -114 0
-193 -154 -115 0
-194 -155 -116 0
-195 -156 -117 0
-193 -157 -118 0
-194 -158 -119 0
-195 -159 -120 0
-193 -160 -121 0
-194 -161 -122 0
-195 -162 -123 0
-193 -163 -124 0
-194 -164 -125 0
-195 -165 -126 0
-193 -166 -127 0
-194 -167 -128 0
-195 -168 -129 0
-193 -169 -130 0
-194 -170 -131 0
-195 -171 -132 0
-193 -172 -133 0
-194 -173 -134 0
-195 -174 -135 0
-193 -175 -136 0
-194 -176 -137 0
-195 -177 -138 0
-193 -178 -139 0
-194 -179 -140 0
-195 -180 -141 0
-193 -181 -142 0
-194 -182 -143 0
-195 -183 -144 0
-193 -184 -145 0
-194 -185 -146 0
-195 -186 -147 0
-193 -187 -148 0
-194 -188 -149 0
-195 -189 -150 0
-193 -190 -151 0
-194 -191 -152 0
-195 -192 -153 0
-193 -154 0
-194 -155 0
-195 -156 0
-196 -193 -157 0
-197 -194 -158 0
-198 -195 -159 0
-199 -193 -160 0
-200 -194 -161 0
-201 -195 -162 0
-202 -193 -163 0
-203 -194 -164 0
-204 -195 -165 0
-205 -193 -166 0
-206 -194 -167 0
-207 -195 -168 0
-208 -193 -169 0
-209 -194 -170 0
-210 -195 -171 0
-211 -193 -172 0
-212 -194 -173 0
-213 -195 -174 0
-214 -193 -175 0
-215 -194 -176 0
-216 -195 -177 0
-217 -193 -178 0
-218 -194 -179 0
-219 -195 -180 0
-220 -193 -181 0
-221 -194 -182 0
-222 -195 -183 0
-223 -193 -184 0
-224 -194 -185 0
-225 -195 -186 0
-226 -193 -187 0
-227 -194 -188 0
-228 -195 -189 0
-229 -193 -190 0
-230 -194 -191 0
-231 -195 -192 0
-232 -193 0
-233 -194 0
-234 -195 0
-235 -196 -193 0
-236 -197 -194 0
-237 -198 -195 0
-238 -199 -193 0
-239 -200 -194 0
-240 -201 -195 0
-241 -202 -193 0
-242 -203 -194 0
-243 -204 -195 0
-244 -205 -193 0
-245 -206 -194 0
-246 -207 -195 0
-247 -208 -193 0
-248 -209 -194 0
-249 -210 -195 0
-250 -211 -193 0
-251 -212 -194 0
-252 -213 -195 0
-253 -214 -193 0
-254 -215 -194 0
-255 -216 -195 0
-256 -217 -193 0
-257 -218 -194 0
-258 -219 -195 0
-259 -220 -193 0
-260 -221 -194 0
-261 -222 -195 0
-262 -223 -193 0
-263 -224 -194 0
-264 -225 -195 0
-265 -226 -193 0
-266 -227 -194 0
-267 -228 -195 0
-268 -229 -193 0
-269 -230 -194 0
-270 -231 -195 0
-271 -232 -193 0
-272 -233 -194 0
-273 -234 -195 0
-274 -235 -193 0
-275 -236 -194 0
-276 -237 -195 0
-277 -238 -193 0
-278 -239 -194 0
-279 -240 -195 0
-280 -241 -193 0
-281 -242 -194 0
-282 -243 -195 0
-283 -244 -193 0
-284 -245 -194 0
-285 -246 -195 0
-286 -247 -193 0
-287 -248 -194 0
-288 -249 -195 0
-289 -250 -193 0
-290 -251 -194 0
-291 -252 -195 0
-292 -253 -193 0
-293 -254 -194 0
-294 -255 -195 0
-295 -256 -193 0
-296 -257 -194 0
-297 -258 -195 0
-298 -259 -193 0
-299 -260 -194 0
-300 -261 -195 0
-301 -262 -193 0
-302 -263 -194 0
-303 -264 -195 0
-304 -265 -193 0
-305 -266 -194 0
-306 -267 -195 0
-307 -268 -193 0
-308 -269 -194 0
-309 -270 -195 0
-310 -271 -193 0
-311 -272 -194 0
-312 -273 -195 0
-313 -274 -193 0
-314 -275 -194 0
-315 -276 -195 0
-316 -277 -193 0
-317 -278 -194 0
-318 -279 -195 0
-319 -280 -193 0
-320 -281 -194 0
-321 -282 -195 0
-322 -283 -193 0
-323 -284 -194 0
-324 -285 -195 0
-325 -286 -193 0
-326 -287 -194 0
-327 -288 -195 0
-328 -289 -193 0
-329 -290 -194 0
-330 -291 -195 0
-331 -292 -193 0
-332 -293 -194 0
-333 -294 -195 0
-334 -295 -193 0
-335 -296 -194 0
-336 -297 -195 0
-337 -298 -193 0
-338 -299 -194 0
-339 -300 -195 0
-340 -301 -193 0
-341 -302 -194 0
-342 -303 -195 0
-343 -304 -193 0
-344 -305 -194 0
-345 -306 -195 0
-346 -307 -193 0
-347 -308 -194 0
-348 -309 -195 0
-349 -310 -193 0
-350 -311 -194 0
-351 -312 -195 0
-352 -313 -193 0
-353 -314 -194 0
-354 -315 -195 0
-355 -316 -193 0
-356 -317 -194 0
-357 -318 -195 0
-358 -319 -193 0
-359 -320 -194 0
-360 -321 -195 0
-361 -322 -193 0
-362 -323 -194 0
-363 -324 -195 0
-364 -325 -193 0
-365 -326 -194 0
-366 -327 -195 0
-367 -328 -193 0
-368 -329 -194 0
-369 -330 -195 0
-370 -331 -193 0
-371 -332 -194 0
-372 -333 -195 0
-373 -334 -193 0
-374 -335 -194 0
-375 -336 -195 0
-208 -43 -1 0
-209 -44 -2 0
-210 -45 -3 0
-208 -46 -4 0
-209 -47 -5 0
-210 -48 -6 0
-208 -49 -7 0
-209 -50 -8 0
-210 -51 -9 0
-208 -52 -10 0
-209 -53 -11 0
-210 -54 -12 0
-208 -55 -13 0
-209 -56 -14 0
-210 -57 -15 0
-208 -58 -16 0
-209 -59 -17 0
-210 -60 -18 0
-208 -61 -19 0
-209 -62 -20 0
-210 -63 -21 0
-208 -64 -22 0
-209 -65 -23 0
-210 -66 -24 0
-208 -67 -25 0
-209 -68 -26 0
-210 -69 -27 0
-208 -70 -28 0
-209 -71 -29 0
-210 -72 -30 0
-208 -73 -31 0
-209 -74 -32 0
-210 -75 -33 0
-208 -76 -34 0
-209 -77 -35 0
-210 -78 -36 0
-208 -79 -37 0
-209 -80 -38 0
-210 -81 -39 0
-208 -82 -40 0
-209 -83 -41 0
-210 -84 -42 0
-208 -85 -43 0
-209 -86 -44 0
-210 -87 -45 0
-208 -88 -46 0
-209 -89 -47 0
-210 -90 -48 0
-208 -91 -49 0
-209 -92 -50 0
-210 -93 -51 0
-208 -94 -52 0
-209 -95 -53 0
-210 -96 -54 0
-208 -97 -55 0
-209 -98 -56 0
-210 -99 -57 0
-208 -100 -58 0
-209 -101 -59 0
-210 -102 -60 0
-208 -103 -61 0
-209 -104 -62 0
-210 -105 -63 0
-208 -106 -64 0
-209 -107 -65 0
-210 -108 -66 0
-208 -109 -67 0
-209 -110 -68 0
-210 -111 -69 0
-208 -112 -70 0
-209 -113 -71 0
-210 -114 -72 0
-208 -115 -73 0
-209 -116 -74 0
-210 -117 -75 0
-208 -118 -76 0
-209 -119 -77 0
-210 -120 -78 0
-208 -121 -79 0
-209 -122 -80 0
-210 -123 -81 0
-208 -124 -82 0
-209 -125 -83 0
-210 -126 -84 0
-208 -127 -85 0
-209 -128 -86 0
-210 -129 -87 0
-208 -130 -88 0
-209 -131 -89 0
-210 -132 -90 0
-208 -133 -91 0
-209 -134 -92 0
-210 -135 -93 0
-208 -136 -94 0
-209 -137 -95 0
-210 -138 -96 0
-208 -139 -97 0
-209 -140 -98 0
-210 -141 -99 0
-208 -142 -100 0
-209 -143 -101 0
-210 -144 -102 0
-208 -145 -103 0
-209 -146 -104 0
-210 -147 -105 0
-208 -148 -106 0
-209 -149 -107 0
-210 -150 -108 0
-208 -151 -109 0
-209 -152 -110 0
-210 -153 -111 0
-208 -154 -112 0
-209 -155 -113 0
-210 -156 -114 0
-208 -157 -115 0
-209 -158 -116 0
-210 -159 -117 0
-208 -160 -118 0
-209 -161 -119 0
-210 -162 -120 0
-208 -163 -121 0
-209 -164 -122 0
-210 -165 -123 0
-208 -166 -124 0
-209 -167 -125 0
-210 -168 -126 0
-208 -169 -127 0
-209 -170 -128 0
-210 -171 -129 0
-208 -172 -130 0
-209 -173 -131 0
-210 -174 -132 0
-208 -175 -133 0
-209 -176 -134 0
-210 -177 -135 0
-208 -178 -136 0
-209 -179 -137 0
-210 -180 -138 0
-208 -181 -139 0
-209 -182 -140 0
-210 -183 -141 0
-208 -184 -142 0
-209 -185 -143 0
-210 -186 -144 0
-208 -187 -145 0
-209 -188 -146 0
-210 -189 -147 0
-208 -190 -148 0
-209 -191 -149 0
-210 -192 -150 0
-208 -193 -151 0
-209 -194 -152 0
-210 -195 -153 0
-208 -196 -154 0
-209 -197 -155 0
-210 -198 -156 0
-208 -199 -157 0
-209 -200 -158 0
-210 -201 -159 0
-208 -202 -160 0
-209 -203 -161 0
-210 -204 -162 0
-208 -205 -163 0
-209 -206 -164 0
-210 -207 -165 0
-208 -166 0
-209 -167 0
-210 -168 0
-211 -208 -169 0
-212 -209 -170 0
-213 -210 -171 0
-214 -208 -172 0
-215 -209 -173 0
-216 -210 -174 0
-217 -208 -175 0
-218 -209 -176 0
-219 -210 -177 0
-220 -208 -178 0
-221 -209 -179 0
-222 -210 -180 0
-223 -208 -181 0
-224 -209 -182 0
-225 -210 -183 0
-226 -208 -184 0
-227 -209 -185 0
-228 -210 -186 0
-229 -208 -187 0
-230 -209 -188 0
-231 -210 -189 0
-232 -208 -190 0
-233 -209 -191 0
-234 -210 -192 0
-235 -208 -193 0
-236 -209 -194 0
-237 -210 -195 0
-238 -208 -196 0
-239 -209 -197 0
-240 -210 -198 0
-241 -208 -199 0
-242 -209 -200 0
-243 -210 -201 0
-244 -208 -202 0
-245 -209 -203 0
-246 -210 -204 0
-247 -208 -205 0
-248 -209 -206 0
-249 -210 -207 0
-250 -208 0
-251 -209 0
-252 -210 0
-253 -211 -208 0
-254 -212 -209 0
-255 -213 -210 0
-256 -214 -208 0
-257 -215 -209 0
-258 -216 -210 0
-259 -217 -208 0
-260 -218 -209 0
-261 -219 -210 0
-262 -220 -208 0
-263 -221 -209 0
-264 -222 -210 0
-265 -223 -208 0
-266 -224 -209 0
-267 -225 -210 0
-268 -226 -208 0
-269 -227 -209 0
-270 -228 -210 0
-271 -229 -208 0
-272 -230 -209 0
-273 -231 -210 0
-274 -232 -208 0
-275 -233 -209 0
-276 -234 -210 0
-277 -235 -208 0
-278 -236 -209 0
-279 -237 -210 0
-280 -238 -208 0
-281 -239 -209 0
-282 -240 -210 0
-283 -241 -208 0
-284 -242 -209 0
-285 -243 -210 0
-286 -244 -208 0
-287 -245 -209 0
-288 -246 -210 0
-289 -247 -208 0
-290 -248 -209 0
-291 -249 -210 0
-292 -250 -208 0
-293 -251 -209 0
-294 -252 -210 0
-295 -253 -208 0
-296 -254 -209 0
-297 -255 -210 0
-298 -256 -208 0
-299 -257 -209 0
-300 -258 -210 0
-301 -259 -208 0
-302 -260 -209 0
-303 -261 -210 0
-304 -262 -208 0
-305 -263 -209 0
-306 -264 -210 0
-307 -265 -208 0
-308 -266 -209 0
-309 -267 -210 0
-310 -268 -208 0
-311 -269 -209 0
-312 -270 -210 0
-313 -271 -208 0
-314 -272 -209 0
-315 -273 -210 0
-316 -274 -208 0
-317 -275 -209 0
-318 -276 -210 0
-319 -277 -208 0
-320 -278 -209 0
-321 -279 -210 0
-322 -280 -208 0
-323 -281 -209 0
-324 -282 -210 0
-325 -283 -208 0
-326 -284 -209 0
-327 -285 -210 0
-328 -286 -208 0
-329 -287 -209 0
-330 -288 -210 0
-331 -289 -208 0
-332 -290 -209 0
-333 -291 -210 0
-334 -292 -208 0
-335 -293 -209 0
-336 -294 -210 0
-337 -295 -208 0
-338 -296 -209 0
-339 -297 -210 0
-340 -298 -208 0
-341 -299 -209 0
-342 -300 -210 0
-343 -301 -208 0
-344 -302 -209 0
-345 -303 -210 0
-346 -304 -208 0
-347 -305 -209 0
-348 -306 -210 0
-349 -307 -208 0
-350 -308 -209 0
-351 -309 -210 0
-352 -310 -208 0
-353 -311 -209 0
-354 -312 -210 0
-355 -313 -208 0
-356 -314 -209 0
-357 -315 -210 0
-358 -316 -208 0
-359 -317 -209 0
-360 -318 -210 0
-361 -319 -208 0
-362 -320 -209 0
-363 -321 -210 0
-364 -322 -208 0
-365 -323 -209 0
-366 -324 -210 0
-367 -325 -208 0
-368 -326 -209 0
-369 -327 -210 0
-370 -328 -208 0
-371 -329 -209 0
-372 -330 -210 0
-373 -331 -208 0
-374 -332 -209 0
-375 -333 -210 0
-223 -46 -1 0
-224 -47 -2 0
-225 -48 -3 0
-223 -49 -4 0
-224 -50 -5 0
-225 -51 -6 0
-223 -52 -7 0
-224 -53 -8 0
-225 -54 -9 0
-223 -55 -10 0
-224 -56 -11 0
-225 -57 -12 0
-223 -58 -13 0
-224 -59 -14 0
-225 -60 -15 0
-223 -61 -16 0
-224 -62 -17 0
-225 -63 -18 0
-223 -64 -19 0
-224 -65 -20 0
-225 -66 -21 0
-223 -67 -22 0
-224 -68 -23 0
-225 -69 -24 0
-223 -70 -25 0
-224 -71 -26 0
-225 -72 -27 0
-223 -73 -28 0
-224 -74 -29 0
-225 -75 -30 0
-223 -76 -31 0
-224 -77 -32 0
-225 -78 -33 0
-223 -79 -34 0
-224 -80 -35 0
-225 -81 -36 0
-223 -82 -37 0
-224 -83 -38 0
-225 -84 -39 0
-223 -85 -40 0
-224 -86 -41 0
-225 -87 -42 0
-223 -88 -43 0
-224 -89 -44 0
-225 -90 -45 0
-223 -91 -46 0
-224 -92 -47 0
-225 -93 -48 0
-223 -94 -49 0
-224 -95 -50 0
-225 -96 -51 0
-223 -97 -52 0
-224 -98 -53 0
-225 -99 -54 0
-223 -100 -55 0
-224 -101 -56 0
-225 -102 -57 0
-223 -103 -58 0
-224 -104 -59 0
-225 -105 -60 0
-223 -106 -61 0
-224 -107 -62 0
-225 -108 -63 0
-223 -109 -64 0
-224 -110 -65 0
-225 -111 -66 0
-223 -112 -67 0
-224 -113 -68 0
-225 -114 -69 0
-223 -115 -70 0
-224 -116 -71 0
-225 -117 -72 0
-223 -118 -73 0
-224 -119 -74 0
-225 -120 -75 0
-223 -121 -76 0
-224 -122 -77 0
-225 -123 -78 0
-223 -124 -79 0
-224 -125 -80 0
-225 -126 -81 0
-223 -127 -82 0
-224 -128 -83 0
-225 -129 -84 0
-223 -130 -85 0
-224 -131 -86 0
-225 -132 -87 0
-223 -133 -88 0
-224 -134 -89 0
-225 -135 -90 0
-223 -136 -91 0
-224 -137 -92 0
-225 -138 -93 0
-223 -139 -94 0
-224 -140 -95 0
-225 -141 -96 0
-223 -142 -97 0
-224 -143 -98 0
-225 -144 -99 0
-223 -145 -100 0
-224 -146 -101 0
-225 -147 -102 0
-223 -148 -103 0
-224 -149 -104 0
-225 -150 -105 0
-223 -151 -106 0
-224 -152 -107 0
-225 -153 -108 0
-223 -154 -109 0
-224 -155 -110 0
-225 -156 -111 0
-223 -157 -112 0
-224 -158 -113 0
-225 -159 -114 0
-223 -160 -115 0
-224 -161 -116 0
-225 -162 -117 0
-223 -163 -118 0
-224 -164 -119 0
-225 -165 -120 0
-223 -166 -121 0
-224 -167 -122 0
-225 -168 -123 0
-223 -169 -124 0
-224 -170 -125 0
-225 -171 -126 0
-223 -172 -127 0
-224 -173 -128 0
-225 -174 -129 0
-223 -175 -130 0
-224 -176 -131 0
-225 -177 -132 0
-223 -178 -133 0
-224 -179 -134 0
-225 -180 -135 0
-223 -181 -136 0
-224 -182 -137 0
-225 -183 -138 0
-223 -184 -139 0
-224 -185 -140 0
-225 -186 -141 0
-223 -187 -142 0
-224 -188 -143 0
-225 -189 -144 0
-223 -190 -145 0
-224 -191 -146 0
-225 -192 -147 0
-223 -193 -148 0
-224 -194 -149 0
-225 -195 -150 0
-223 -196 -151 0
-224 -197 -152 0
-225 -198 -153 0
-223 -199 -154 0
-224 -200 -155 0
-225 -201 -156 0
-223 -202 -157 0
-224 -203 -158 0
-225 -204 -159 0
-223 -205 -160 0
-224 -206 -161 0
-225 -207 -162 0
-223 -208 -163 0
-224 -209 -164 0
-225 -210 -165 0
-223 -211 -166 0
-224 -212 -167 0
-225 -213 -168 0
-223 -214 -169 0
-224 -215 -170 0
-225 -216 -171 0
-223 -217 -172 0
-224 -218 -173 0
-225 -219 -174 0
-223 -220 -175 0
-224 -221 -176 0
-225 -222 -177 0
-223 -178 0
-224 -179 0
-225 -180 0
-226 -223 -181 0
-227 -224 -182 0
-228 -225 -183 0
-229 -223 -184 0
-230 -224 -185 0
-231 -225 -186 0
-232 -223 -187 0
-233 -224 -188 0
-234 -225 -189 0
-235 -223 -190 0
-236 -224 -191 0
-237 -225 -192 0
-238 -223 -193 0
-239 -224 -194 0
-240 -225 -195 0
-241 -223 -196 0
-242 -224 -197 0
-243 -225 -198 0
-244 -223 -199 0
-245 -224 -200 0
-246 -225 -201 0
-247 -223 -202 0
-248 -224 -203 0
-249 -225 -204 0
-250 -223 -205 0
-251 -224 -206 0
-252 -225 -207 0
-253 -223 -208 0
-254 -224 -209 0
-255 -225 -210 0
-256 -223 -211 0
-257 -224 -212 0
-258 -225 -213 0
-259 -223 -214 0
-260 -224 -215 0
-261 -225 -216 0
-262 -223 -217 0
-263 -224 -218 0
-264 -225 -219 0
-265 -223 -220 0
-266 -224 -221 0
-267 -225 -222 0
-268 -223 0
-269 -224 0
-270 -225 0
-271 -226 -223 0
-272 -227 -224 0
-273 -228 -225 0
-274 -229 -223 0
-275 -230 -224 0
-276 -231 -225 0
-277 -232 -223 0
-278 -233 -224 0
-279 -234 -225 0
-280 -235 -223 0
-281 -236 -224 0
-282 -237 -225 0
-283 -238 -223 0
-284 -239 -224 0
-285 -240 -225 0
-286 -241 -223 0
-287 -242 -224 0
-288 -243 -225 0
-289 -244 -223 0
-290 -245 -224 0
-291 -246 -225 0
-292 -247 -223 0
-293 -248 -224 0
-294 -249 -225 0
-295 -250 -223 0
-296 -251 -224 0
-297 -252 -225 0
-298 -253 -223 0
-299 -254 -224 0
-300 -255 -225 0
-301 -256 -223 0
-302 -257 -224 0
-303 -258 -225 0
-304 -259 -223 0
-305 -260 -224 0
-306 -261 -225 0
-307 -262 -223 0
-308 -263 -224 0
-309 -264 -225 0
-310 -265 -223 0
-311 -266 -224 0
-312 -267 -225 0
-313 -268 -223 0
-314 -269 -224 0
-315 -270 -225 0
-316 -271 -223 0
-317 -272 -224 0
-318 -273 -225 0
-319 -274 -223 0
-320 -275 -224 0
-321 -276 -225 0
-322 -277 -223 0
-323 -278 -224 0
-324 -279 -225 0
-325 -280 -223 0
-326 -281 -224 0
-327 -282 -225 0
-328 -283 -223 0
-329 -284 -224 0
-330 -285 -225 0
-331 -286 -223 0
-332 -287 -224 0
-333 -288 -225 0
-334 -289 -223 0
-335 -290 -224 0
-336 -291 -225 0
-337 -292 -223 0
-338 -293 -224 0
-339 -294 -225 0
-340 -295 -223 0
-341 -296 -224 0
-342 -297 -225 0
-343 -298 -223 0
-344 -299 -224 0
-345 -300 -225 0
-346 -301 -223 0
-347 -302 -224 0
-348 -303 -225 0
-349 -304 -223 0
-350 -305 -224 0
-351 -306 -225 0
-352 -307 -223 0
-353 -308 -224 0
-354 -309 -225 0
-355 -310 -223 0
-356 -311 -224 0
-357 -312 -225 0
-358 -313 -223 0
-359 -314 -224 0
-360 -315 -225 0
-361 -316 -223 0
-362 -317 -224 0
-363 -318 -225 0
-364 -319 -223 0
-365 -320 -224 0
-366 -321 -225 0
-367 -322 -223 0
-368 -323 -224 0
-369 -324 -225 0
-370 -325 -223 0
-371 -326 -224 0
-372 -327 -225 0
-373 -328 -223 0
-374 -329 -224 0
-375 -330 -225 0
-238 -49 -1 0
-239 -50 -2 0
-240 -51 -3 0
-238 -52 -4 0
-239 -53 -5 0
-240 -54 -6 0
-238 -55 -7 0
-239 -56 -8 0
-240 -57 -9 0
-238 -58 -10 0
-239 -59 -11 0
-240 -60 -12 0
-238 -61 -13 0
-239 -62 -14 0
-240 -63 -15 0
-238 -64 -16 0
-239 -65 -17 0
-240 -66 -18 0
-238 -67 -19 0
-239 -68 -20 0
-240 -69 -21 0
-238 -70 -22 0
-239 -71 -23 0
-240 -72 -24 0
-238 -73 -25 0
-239 -74 -26 0
-240 -75 -27 0
-238 -76 -28 0
-239 -77 -29 0
-240 -78 -30 0
-238 -79 -31 0
-239 -80 -32 0
-240 -81 -33 0
-238 -82 -34 0
-239 -83 -35 0
-240 -84 -36 0
-238 -85 -37 0
-239 -86 -38 0
-240 -87 -39 0
-238 -88 -40 0
-239 -89 -41 0
-240 -90 -42 0
-238 -91 -43 0
-239 -92 -44 0
-240 -93 -45 0
-238 -94 -46 0
-239 -95 -47 0
-240 -96 -48 0
-238 -97 -49 0
-239 -98 -50 0
-240 -99 -51 0
-238 -100 -52 0
-239 -101 -53 0
-240 -102 -54 0
-238 -103 -55 0
-239 -104 -56 0
-240 -105 -57 0
-238 -106 -58 0
-239 -107 -59 0
-240 -108 -60 0
-238 -109 -61 0
-239 -110 -62 0
-240 -111 -63 0
-238 -112 -64 0
-239 -113 -65 0
-240 -114 -66 0
-238 -115 -67 0
-239 -116 -68 0
-240 -117 -69 0
-238 -118 -70 0
-239 -119 -71 0
-240 -120 -72 0
-238 -121 -73 0
-239 -122 -74 0
-240 -123 -75 0
-238 -124 -76 0
-239 -125 -77 0
-240 -126 -78 0
-238 -127 -79 0
-239 -128 -80 0
-240 -129 -81 0
-238 -130 -82 0
-239 -131 -83 0
-240 -132 -84 0
-238 -133 -85 0
-239 -134 -86 0
-240 -135 -87 0
-238 -136 -88 0
-239 -137 -89 0
-240 -138 -90 0
-238 -139 -91 0
-239 -140 -92 0
-240 -141 -93 0
-238 -142 -94 0
-239 -143 -95 0
-240 -144 -96 0
-238 -145 -97 0
-239 -146 -98 0
-240 -147 -99 0
-238 -148 -100 0
-239 -149 -101 0
-240 -150 -102 0
-238 -151 -103 0
-239 -152 -104 0
-240 -153 -105 0
-238 -154 -106 0
-239 -155 -107 0
-240 -156 -108 0
-238 -157 -109 0
-239 -158 -110 0
-240 -159 -111 0
-238 -160 -112 0
-239 -161 -113 0
-240 -162 -114 0
-238 -163 -115 0
-239 -164 -116 0
-240 -165 -117 0
-238 -166 -118 0
-239 -167 -119 0
-240 -168 -120 0
-238 -169 -121 0
-239 -170 -122 0
-240 -171 -123 0
-238 -172 -124 0
-239 -173 -125 0
-240 -174 -126 0
-238 -175 -127 0
-239 -176 -128 0
-240 -177 -129 0
-238 -178 -130 0
-239 -179 -131 0
-240 -180 -132 0
-238 -181 -133 0
-239 -182 -134 0
-240 -183 -135 0
-238 -184 -136 0
-239 -185 -137 0
-240 -186 -138 0
-238 -187 -139 0
-239 -188 -140 0
-240 -189 -141 0
-238 -190 -142 0
-239 -191 -143 0
-240 -192 -144 0
-238 -193 -145 0
-239 -194 -146 0
-240 -195 -147 0
-238 -196 -148 0
-239 -197 -149 0
-240 -198 -150 0
-238 -199 -151 0
-239 -200 -152 0
-240 -201 -153 0
-238 -202 -154 0
-239 -203 -155 0
-240 -204 -156 0
-238 -205 -157 0
-239 -206 -158 0
-240 -207 -159 0
-238 -208 -160 0
-239 -209 -161 0
-240 -210 -162 0
-238 -211 -163 0
-239 -212 -164 0
-240 -213 -165 0
-238 -214 -166 0
-239 -215 -167 0
-240 -216 -168 0
-238 -217 -169 0
-239 -218 -170 0
-240 -219 -171 0
-238 -220 -172 0
-239 -221 -173 0
-240 -222 -174 0
-238 -223 -175 0
-239 -224 -176 0
-240 -225 -177 0
-238 -226 -178 0
-239 -227 -179 0
-240 -228 -180 0
-238 -229 -181 0
-239 -230 -182 0
-240 -231 -183 0
-238 -232 -184 0
-239 -233 -185 0
-240 -234 -186 0
-238 -235 -187 0
-239 -236 -188 0
-240 -237 -189 0
-238 -190 0
-239 -191 0
-240 -192 0
-241 -238 -193 0
-242 -239 -194 0
-243 -240 -195 0
-244 -238 -196 0
-245 -239 -197 0
-246 -240 -198 0
-247 -238 -199 0
-248 -239 -200 0
-249 -240 -201 0
-250 -238 -202 0
-251 -239 -203 0
-252 -240 -204 0
-253 -238 -205 0
-254 -239 -206 0
-255 -240 -207 0
-256 -238 -208 0
-257 -239 -209 0
-258 -240 -210 0
-259 -238 -211 0
-260 -239 -212 0
-261 -240 -213 0
-262 -238 -214 0
-263 -239 -215 0
-264 -240 -216 0
-265 -238 -217 0
-266 -239 -218 0
-267 -240 -219 0
-268 -238 -220 0
-269 -239 -221 0
-270 -240 -222 0
-271 -238 -223 0
-272 -239 -224 0
-273 -240 -225 0
-274 -238 -226 0
-275 -239 -227 0
-276 -240 -228 0
-277 -238 -229 0
-278 -239 -230 0
-279 -240 -231 0
-280 -238 -232 0
-281 -239 -233 0
-282 -240 -234 0
-283 -238 -235 0
-284 -239 -236 0
-285 -240 -237 0
-286 -238 0
-287 -239 0
-288 -240 0
-289 -241 -238 0
-290 -242 -239 0
-291 -243 -240 0
-292 -244 -238 0
-293 -245 -239 0
-294 -246 -240 0
-295 -247 -238 0
-296 -248 -239 0
-297 -249 -240 0
-298 -250 -238 0
-299 -251 -239 0
-300 -252 -240 0
-301 -253 -238 0
-302 -254 -239 0
-303 -255 -240 0
-304 -256 -238 0
-305 -257 -239 0
-306 -258 -240 0
-307 -259 -238 0
-308 -260 -239 0
-309 -261 -240 0
-310 -262 -238 0
-311 -263 -239 0
-312 -264 -240 0
-313 -265 -238 0
-314 -266 -239 0
-315 -267 -240 0
-316 -268 -238 0
-317 -269 -239 0
-318 -270 -240 0
-319 -271 -238 0
-320 -272 -239 0
-321 -273 -240 0
-322 -274 -238 0
-323 -275 -239 0
-324 -276 -240 0
-325 -277 -238 0
-326 -278 -239 0
-327 -279 -240 0
-328 -280 -238 0
-329 -281 -239 0
-330 -282 -240 0
-331 -283 -238 0
-332 -284 -239 0
-333 -285 -240 0
-334 -286 -238 0
-335 -287 -239 0
-336 -288 -240 0
-337 -289 -238 0
-338 -290 -239 0
-339 -291 -240 0
-340 -292 -238 0
-341 -293 -239 0
-342 -294 -240 0
-343 -295 -238 0
-344 -296 -239 0
-345 -297 -240 0
-346 -298 -238 0
-347 -299 -239 0
-348 -300 -240 0
-349 -301 -238 0
-350 -302 -239 0
-351 -303 -240 0
-352 -304 -238 0
-353 -305 -239 0
-354 -306 -240 0
-355 -307 -238 0
-356 -308 -239 0
-357 -309 -240 0
-358 -310 -238 0
-359 -311 -239 0
-360 -312 -240 0
-361 -313 -238 0
-362 -314 -239 0
-363 -315 -240 0
-364 -316 -238 0
-365 -317 -239 0
-366 -318 -240 0
-367 -319 -238 0
-368 -320 -239 0
-369 -321 -240 0
-370 -322 -238 0
-371 -323 -239 0
-372 -324 -240 0
-373 -325 -238 0
-374 -326 -239 0
-375 -327 -240 0
-253 -52 -1 0
-254 -53 -2 0
-255 -54 -3 0
-253 -55 -4 0
-254 -56 -5 0
-255 -57 -6 0
-253 -58 -7 0
-254 -59 -8 0
-255 -60 -9 0
-253 -61 -10 0
-254 -62 -11 0
-255 -63 -12 0
-253 -64 -13 0
-254 -65 -14 0
-255 -66 -15 0
-253 -67 -16 0
-254 -68 -17 0
-255 -69 -18 0
-253 -70 -19 0
-254 -71 -20 0
-255 -72 -21 0
-253 -73 -22 0
-254 -74 -23 0
-255 -75 -24 0
-253 -76 -25 0
-254 -77 -26 0
-255 -78 -27 0
-253 -79 -28 0
-254 -80 -29 0
-255 -81 -30 0
-253 -82 -31 0
-254 -83 -32 0
-255 -84 -33 0
-253 -85 -34 0
-254 -86 -35 0
-255 -87 -36 0
-253 -88 -37 0
-254 -89 -38 0
-255 -90 -39 0
-253 -91 -40 0
-254 -92 -41 0
-255 -93 -42 0
-253 -94 -43 0
-254 -95 -44 0
-255 -96 -45 0
-253 -97 -46 0
-254 -98 -47 0
-255 -99 -48 0
-253 -100 -49 0
-254 -101 -50 0
-255 -102 -51 0
-253 -103 -52 0
-254 -104 -53 0
-255 -105 -54 0
-253 -106 -55 0
-254 -107 -56 0
-255 -108 -57 0
-253 -109 -58 0
-254 -110 -59 0
-255 -111 -60 0
-253 -112 -61 0
-254 -113 -62 0
-255 -114 -63 0
-253 -115 -64 0
-254 -116 -65 0
-255 -117 -66 0
-253 -118 -67 0
-254 -119 -68 0
-255 -120 -69 0
-253 -121 -70 0
-254 -122 -71 0
-255 -123 -72 0
-253 -124 -73 0
-254 -125 -74 0
-255 -126 -75 0
-253 -127 -76 0
-254 -128 -77 0
-255 -129 -78 0
-253 -130 -79 0
-254 -131 -80 0
-255 -132 -81 0
-253 -133 -82 0
-254 -134 -83 0
-255 -135 -84 0
-253 -136 -85 0
-254 -137 -86 0
-255 -138 -87 0
-253 -139 -88 0
-254 -140 -89 0
-255 -141 -90 0
-253 -142 -91 0
-254 -143 -92 0
-255 -144 -93 0
-253 -145 -94 0
-254 -146 -95 0
-255 -147 -96 0
-253 -148 -97 0
-254 -149 -98 0
-255 -150 -99 0
-253 -151 -100 0
-254 -152 -101 0
-255 -153 -102 0
-253 -154 -103 0
-254 -155 -104 0
-255 -156 -105 0
-253 -157 -106 0
-254 -158 -107 0
-255 -159 -108 0
-253 -160 -109 0
-254 -161 -110 0
-255 -162 -111 0
-253 -163 -112 0
-254 -164 -113 0
-255 -165 -114 0
-253 -166 -115 0
-254 -167 -116 0
-255 -168 -117 0
-253 -169 -118 0
-254 -170 -119 0
-255 -171 -120 0
-253 -172 -121 0
-254 -173 -122 0
-255 -174 -123 0
-253 -175 -124 0
-254 -176 -125 0
-255 -177 -126 0
-253 -178 -127 0
-254 -179 -128 0
-255 -180 -129 0
-253 -181 -130 0
-254 -182 -131 0
-255 -183 -132 0
-253 -184 -133 0
-254 -185 -134 0
-255 -186 -135 0
-253 -187 -136 0
-254 -188 -137 0
-255 -189 -138 0
-253 -190 -139 0
-254 -191 -140 0
-255 -192 -141 0
-253 -193 -142 0
-254 -194 -143 0
-255 -195 -144 0
-253 -196 -145 0
-254 -197 -146 0
-255 -198 -147 0
-253 -199 -148 0
-254 -200 -149 0
-255 -201 -150 0
-253 -202 -151 0
-254 -203 -152 0
-255 -204 -153 0
-253 -205 -154 0
-254 -206 -155 0
-255 -207 -156 0
-253 -208 -157 0
-254 -209 -158 0
-255 -210 -159 0
-253 -211 -160 0
-254 -212 -161 0
-255 -213 -162 0
-253 -214 -163 0
-254 -215 -164 0
-255 -216 -165 0
-253 -217 -166 0
-254 -218 -167 0
-255 -219 -168 0
-253 -220 -169 0
-254 -221 -170 0
-255 -222 -171 0
-253 -223 -172 0
-254 -224 -173 0
-255 -225 -174 0
-253 -226 -175 0
-254 -227 -176 0
-255 -228 -177 0
-253 -229 -178 0
-254 -230 -179 0
-255 -231 -180 0
-253 -232 -181 0
-254 -233 -182 0
-255 -234 -183 0
-253 -235 -184 0
-254 -236 -185 0
-255 -237 -186 0
-253 -238 -187 0
-254 -239 -188 0
-255 -240 -189 0
-253 -241 -190 0
-254 -242 -191 0
-255 -243 -192 0
-253 -244 -193 0
-254 -245 -194 0
-255 -246 -195 0
-253 -247 -196 0
-254 -248 -197 0
-255 -249 -198 0
-253 -250 -199 0
-254 -251 -200 0
-255 -252 -201 0
-253 -202 0
-254 -203 0
-255 -204 0
-256 -253 -205 0
-257 -254 -206 0
-258 -255 -207 0
-259 -253 -208 0
-260 -254 -209 0
-261 -255 -210 0
-262 -253 -211 0
-263 -254 -212 0
-264 -255 -213 0
-265 -253 -214 0
-266 -254 -215 0
-267 -255 -216 0
-268 -253 -217 0
-269 -254 -218 0
-270 -255 -219 0
-271 -253 -220 0
-272 -254 -221 0
-273 -255 -222 0
-274 -253 -223 0
-275 -254 -224 0
-276 -255 -225 0
-277 -253 -226 0
-278 -254 -227 0
-279 -255 -228 0
-280 -253 -229 0
-281 -254 -230 0
-282 -255 -231 0
-283 -253 -232 0
-284 -254 -233 0
-285 -255 -234 0
-286 -253 -235 0
-287 -254 -236 0
-288 -255 -237 0
-289 -253 -238 0
-290 -254 -239 0
-291 -255 -240 0
-292 -253 -241 0
-293 -254 -242 0
-294 -255 -243 0
-295 -253 -244 0
-296 -254 -245 0
-297 -255 -246 0
-298 -253 -247 0
-299 -254 -248 0
-300 -255 -249 0
-301 -253 -250 0
-302 -254 -251 0
-303 -255 -252 0
-304 -253 0
-305 -254 0
-306 -255 0
-307 -256 -253 0
-308 -257 -254 0
-309 -258 -255 0
-310 -259 -253 0
-311 -260 -254 0
-312 -261 -255 0
-313 -262 -253 0
-314 -263 -254 0
-315 -264 -255 0
-316 -265 -253 0
-317 -266 -254 0
-318 -267 -255 0
-319 -268 -253 0
-320 -269 -254 0
-321 -270 -255 0
-322 -271 -253 0
-323 -272 -254 0
-324 -273 -255 0
-325 -274 -253 0
-326 -275 -254 0
-327 -276 -255 0
-328 -277 -253 0
-329 -278 -254 0
-330 -279 -255 0
-331 -280 -253 0
-332 -281 -254 0
-333 -282 -255 0
-334 -283 -253 0
-335 -284 -254 0
-336 -285 -255 0
-337 -286 -253 0
-338 -287 -254 0
-339 -288 -255 0
-340 -289 -253 0
-341 -290 -254 0
-342 -291 -255 0
-343 -292 -253 0
-344 -293 -254 0
-345 -294 -255 0
-346 -295 -253 0
-347 -296 -254 0
-348 -297 -255 0
-349 -298 -253 0
-350 -299 -254 0
-351 -300 -255 0
-352 -301 -253 0
-353 -302 -254 0
-354 -303 -255 0
-355 -304 -253 0
-356 -305 -254 0
-357 -306 -255 0
-358 -307 -253 0
-359 -308 -254 0
-360 -309 -255 0
-361 -310 -253 0
-362 -311 -254 0
-363 -312 -255 0
-364 -313 -253 0
-365 -314 -254 0
-366 -315 -255 0
-367 -316 -253 0
-368 -317 -254 0
-369 -318 -255 0
-370 -319 -253 0
-371 -320 -254 0
-372 -321 -255 0
-373 -322 -253 0
-374 -323 -254 0
-375 -324 -255 0
-268 -55 -1 0
-269 -56 -2 0
-270 -57 -3 0
-268 -58 -4 0
-269 -59 -5 0
-270 -60 -6 0
-268 -61 -7 0
-269 -62 -8 0
-270 -63 -9 0
-268 -64 -10 0
-269 -65 -11 0
-270 -66 -12 0
-268 -67 -13 0
-269 -68 -14 0
-270 -69 -15 0
-268 -70 -16 0
-269 -71 -17 0
-270 -72 -18 0
-268 -73 -19 0
-269 -74 -20 0
-270 -75 -21 0
-268 -76 -22 0
-269 -77 -23 0
-270 -78 -24 0
-268 -79 -25 0
-269 -80 -26 0
-270 -81 -27 0
-268 -82 -28 0
-269 -83 -29 0
-270 -84 -30 0
-268 -85 -31 0
-269 -86 -32 0
-270 -87 -33 0
-268 -88 -34 0
-269 -89 -35 0
-270 -90 -36 0
-268 -91 -37 0
-269 -92 -38 0
-270 -93 -39 0
-268 -94 -40 0
-269 -95 -41 0
-270 -96 -42 0
-268 -97 -43 0
-269 -98 -44 0
-270 -99 -45 0
-268 -100 -46 0
-269 -101 -47 0
-270 -102 -48 0
-268 -103 -49 0
-269 -104 -50 0
-270 -105 -51 0
-268 -106 -52 0
-269 -107 -53 0
-270 -108 -54 0
-268 -109 -55 0
-269 -110 -56 0
-270 -111 -57 0
-268 -112 -58 0
-269 -113 -59 0
-270 -114 -60 0
-268 -115 -61 0
-269 -116 -62 0
-270 -117 -63 0
-268 -118 -64 0
-269 -119 -65 0
-270 -120 -66 0
-268 -121 -67 0
-269 -122 -68 0
-270 -123 -69 0
-268 -124 -70 0
-269 -125 -71 0
-270 -126 -72 0
-268 -127 -73 0
-269 -128 -74 0
-270 -129 -75 0
-268 -130 -76 0
-269 -131 -77 0
-270 -132 -78 0
-268 -133 -79 0
-269 -134 -80 0
-270 -135 -81 0
-268 -136 -82 0
-269 -137 -83 0
-270 -138 -84 0
-268 -139 -85 0
-269 -140 -86 0
-270 -141 -87 0
-268 -142 -88 0
-269 -143 -89 0
-270 -144 -90 0
-268 -145 -91 0
-269 -146 -92 0
-270 -147 -93 0
-268 -148 -94 0
-269 -149 -95 0
-270 -150 -96 0
-268 -151 -97 0
-269 -152 -98 0
-270 -153 -99 0
-268 -154 -100 0
-269 -155 -101 0
-270 -156 -102 0
-268 -157 -103 0
-269 -158 -104 0
-270 -159 -105 0
-268 -160 -106 0
-269 -161 -107 0
-270 -162 -108 0
-268 -163 -109 0
-269 -164 -110 0
-270 -165 -111 0
-268 -166 -112 0
-269 -167 -113 0
-270 -168 -114 0
-268 -169 -115 0
-269 -170 -116 0
-270 -171 -117 0
-268 -172 -118 0
-269 -173 -119 0
-270 -174 -120 0
-268 -175 -121 0
-269 -176 -122 0
-270 -177 -123 0
-268 -178 -124 0
-269 -179 -125 0
-270 -180 -126 0
-268 -181 -127 0
-269 -182 -128 0
-270 -183 -129 0
-268 -184 -130 0
-269 -185 -131 0
-270 -186 -132 0
-268 -187 -133 0
-269 -188 -134 0
-270 -189 -135 0
-268 -190 -136 0
-269 -191 -137 0
-270 -192 -138 0
-268 -193 -139 0
-269 -194 -140 0
-270 -195 -141 0
-268 -196 -142 0
-269 -197 -143 0
-270 -198 -144 0
-268 -199 -145 0
-269 -200 -146 0
-270 -201 -147 0
-268 -202 -148 0
-269 -203 -149 0
-270 -204 -150 0
-268 -205 -151 0
-269 -206 -152 0
-270 -207 -153 0
-268 -208 -154 0
-269 -209 -155 0
-270 -210 -156 0
-268 -211 -157 0
-269 -212 -158 0
-270 -213 -159 0
-268 -214 -160 0
-269 -215 -161 0
-270 -216 -162 0
-268 -217 -163 0
-269 -218 -164 0
-270 -219 -165 0
-268 -220 -166 0
-269 -221 -167 0
-270 -222 -168 0
-268 -223 -169 0
-269 -224 -170 0
-270 -225 -171 0
-268 -226 -172 0
-269 -227 -173 0
-270 -228 -174 0
-268 -229 -175 0
-269 -230 -176 0
-270 -231 -177 0
-268 -232 -178 0
-269 -233 -179 0
-270 -234 -180 0
-268 -235 -181 0
-269 -236 -182 0
-270 -237 -183 0
-268 -238 -184 0
-269 -239 -185 0
-270 -240 -186 0
-268 -241 -187 0
-269 -242 -188 0
-270 -243 -189 0
-268 -244 -190 0
-269 -245 -191 0
-270 -246 -192 0
-268 -247 -193 0
-269 -248 -194 0
-270 -249 -195 0
-268 -250 -196 0
-269 -251 -197 0
-270 -252 -198 0
-268 -253 -199 0
-269 -254 -200 0
-270 -255 -201 0
-268 -256 -202 0
-269 -257 -203 0
-270 -258 -204 0
-268 -259 -205 0
-269 -260 -206 0
-270 -261 -207 0
-268 -262 -208 0
-269 -263 -209 0
-270 -264 -210 0
-268 -265 -211 0
-269 -266 -212 0
-270 -267 -213 0
-268 -214 0
-269 -215 0
-270 -216 0
-271 -268 -217 0
-272 -269 -218 0
-273 -270 -219 0
-274 -268 -220 0
-275 -269 -221 0
-276 -270 -222 0
-277 -268 -223 0
-278 -269 -224 0
-279 -270 -225 0
-280 -268 -226 0
-281 -269 -227 0
-282 -270 -228 0
-283 -268 -229 0
-284 -269 -230 0
-285 -270 -231 0
-286 -268 -232 0
-287 -269 -233 0
-288 -270 -234 0
-289 -268 -235 0
-290 -269 -236 0
-291 -270 -237 0
-292 -268 -238 0
-293 -269 -239 0
-294 -270 -240 0
-295 -268 -241 0
-296 -269 -242 0
-297 -270 -243 0
-298 -268 -244 0
-299 -269 -245 0
-300 -270 -246 0
-301 -268 -247 0
-302 -269 -248 0
-303 -270 -249 0
-304 -268 -250 0
-305 -269 -251 0
-306 -270 -252 0
-307 -268 -253 0
-308 -269 -254 0
-309 -270 -255 0
-310 -268 -256 0
-311 -269 -257 0
-312 -270 -258 0
-313 -268 -259 0
-314 -269 -260 0
-315 -270 -261 0
-316 -268 -262 0
-317 -269 -263 0
-318 -270 -264 0
-319 -268 -265 0
-320 -269 -266 0
-321 -270 -267 0
-322 -268 0
-323 -269 0
-324 -270 0
-325 -271 -268 0
-326 -272 -269 0
-327 -273 -270 0
-328 -274 -268 0
-329 -275 -269 0
-330 -276 -270 0
-331 -277 -268 0
-332 -278 -269 0
-333 -279 -270 0
-334 -280 -268 0
-335 -281 -269 0
-336 -282 -270 0
-337 -283 -268 0
-338 -284 -269 0
-339 -285 -270 0
-340 -286 -268 0
-341 -287 -269 0
-342 -288 -270 0
-343 -289 -268 0
-344 -290 -269 0
-345 -291 -270 0
-346 -292 -268 0
-347 -293 -269 0
-348 -294 -270 0
-349 -295 -268 0
-350 -296 -269 0
-351 -297 -270 0
-352 -298 -268 0
-353 -299 -269 0
-354 -300 -270 0
-355 -301 -268 0
-356 -302 -269 0
-357 -303 -270 0
-358 -304 -268 0
-359 -305 -269 0
-360 -306 -270 0
-361 -307 -268 0
-362 -308 -269 0
-363 -309 -270 0
-364 -310 -268 0
-365 -311 -269 0
-366 -312 -270 0
-367 -313 -268 0
-368 -314 -269 0
-369 -315 -270 0
-370 -316 -268 0
-371 -317 -269 0
-372 -318 -270 0
-373 -319 -268 0
-374 -320 -269 0
-375 -321 -270 0
-283 -58 -1 0
-284 -59 -2 0
-285 -60 -3 0
-283 -61 -4 0
-284 -62 -5 0
-285 -63 -6 0
-283 -64 -7 0
-284 -65 -8 0
-285 -66 -9 0
-283 -67 -10 0
-284 -68 -11 0
-285 -69 -12 0
-283 -70 -13 0
-284 -71 -14 0
-285 -72 -15 0
-283 -73 -16 0
-284 -74 -17 0
-285 -75 -18 0
-283 -76 -19 0
-284 -77 -20 0
-285 -78 -21 0
-283 -79 -22 0
-284 -80 -23 0
-285 -81 -24 0
-283 -82 -25 0
-284 -83 -26 0
-285 -84 -27 0
-283 -85 -28 0
-284 -86 -29 0
-285 -87 -30 0
-283 -88 -31 0
-284 -89 -32 0
-285 -90 -33 0
-283 -91 -34 0
-284 -92 -35 0
-285 -93 -36 0
-283 -94 -37 0
-284 -95 -38 0
-285 -96 -39 0
-283 -97 -40 0
-284 -98 -41 0
-285 -99 -42 0
-283 -100 -43 0
-284 -101 -44 0
-285 -102 -45 0
-283 -103 -46 0
-284 -104 -47 0
-285 -105 -48 0
-283 -106 -49 0
-284 -107 -50 0
-285 -108 -51 0
-283 -109 -52 0
-284 -110 -53 0
-285 -111 -54 0
-283 -112 -55 0
-284 -113 -56 0
-285 -114 -57 0
-283 -115 -58 0
-284 -116 -59 0
-285 -117 -60 0
-283 -118 -61 0
-284 -119 -62 0
-285 -120 -63 0
-283 -121 -64 0
-284 -122 -65 0
-285 -123 -66 0
-283 -124 -67 0
-284 -125 -68 0
-285 -126 -69 0
-283 -127 -70 0
-284 -128 -71 0
-285 -129 -72 0
-283 -130 -73 0
-284 -131 -74 0
-285 -132 -75 0
-283 -133 -76 0
-284 -134 -77 0
-285 -135 -78 0
-283 -136 -79 0
-284 -137 -80 0
-285 -138 -81 0
-283 -139 -82 0
-284 -140 -83 0
-285 -141 -84 0
-283 -142 -85 0
-284 -143 -86 0
-285 -144 -87 0
-283 -145 -88 0
-284 -146 -89 0
-285 -147 -90 0
-283 -148 -91 0
-284 -149 -92 0
-285 -150 -93 0
-283 -151 -94 0
-284 -152 -95 0
-285 -153 -96 0
-283 -154 -97 0
-284 -155 -98 0
-285 -156 -99 0
-283 -157 -100 0
-284 -158 -101 0
-285 -159 -102 0
-283 -160 -103 0
-284 -161 -104 0
-285 -162 -105 0
-283 -163 -106 0
-284 -164 -107 0
-285 -165 -108 0
-283 -166 -109 0
-284 -167 -110 0
-285 -168 -111 0
-283 -169 -112 0
-284 -170 -113 0
-285 -171 -114 0
-283 -172 -115 0
-284 -173 -116 0
-285 -174 -117 0
-283 -175 -118 0
-284 -176 -119 0
-285 -177 -120 0
-283 -178 -121 0
-284 -179 -122 0
-285 -180 -123 0
-283 -181 -124 0
-284 -182 -125 0
-285 -183 -126 0
-283 -184 -127 0
-284 -185 -128 0
-285 -186 -129 0
-283 -187 -130 0
-284 -188 -131 0
-285 -189 -132 0
-283 -190 -133 0
-284 -191 -134 0
-285 -192 -135 0
-283 -193 -136 0
-284 -194 -137 0
-285 -195 -138 0
-283 -196 -139 0
-284 -197 -140 0
-285 -198 -141 0
-283 -199 -142 0
-284 -200 -143 0
-285 -201 -144 0
-283 -202 -145 0
-284 -203 -146 0
-285 -204 -147 0
-283 -205 -148 0
-284 -206 -149 0
-285 -207 -150 0
-283 -208 -151 0
-284 -209 -152 0
-285 -210 -153 0
-283 -211 -154 0
-284 -212 -155 0
-285 -213 -156 0
-283 -214 -157 0
-284 -215 -158 0
-285 -216 -159 0
-283 -217 -160 0
-284 -218 -161 0
-285 -219 -162 0
-283 -220 -163 0
-284 -221 -164 0
-285 -222 -165 0
-283 -223 -166 0
-284 -224 -167 0
-285 -225 -168 0
-283 -226 -169 0
-284 -227 -170 0
-285 -228 -171 0
-283 -229 -172 0
-284 -230 -173 0
-285 -231 -174 0
-283 -232 -175 0
-284 -233 -176 0
-285 -234 -177 0
-283 -235 -178 0
-284 -236 -179 0
-285 -237 -180 0
-283 -238 -181 0
-284 -239 -182 0
-285 -240 -183 0
-283 -241 -184 0
-284 -242 -185 0
-285 -243 -186 0
-283 -244 -187 0
-284 -245 -188 0
-285 -246 -189 0
-283 -247 -190 0
-284 -248 -191 0
-285 -249 -192 0
-283 -250 -193 0
-284 -251 -194 0
-285 -252 -195 0
-283 -253 -196 0
-284 -254 -197 0
-285 -255 -198 0
-283 -256 -199 0
-284 -257 -200 0
-285 -258 -201 0
-283 -259 -202 0
-284 -260 -203 0
-285 -261 -204 0
-283 -262 -205 0
-284 -263 -206 0
-285 -264 -207 0
-283 -265 -208 0
-284 -266 -209 0
-285 -267 -210 0
-283 -268 -211 0
-284 -269 -212 0
-285 -270 -213 0
-283 -271 -214 0
-284 -272 -215 0
-285 -273 -216 0
-283 -274 -217 0
-284 -275 -218 0
-285 -276 -219 0
-283 -277 -220 0
-284 -278 -221 0
-285 -279 -222 0
-283 -280 -223 0
-284 -281 -224 0
-285 -282 -225 0
-283 -226 0
-284 -227 0
-285 -228 0
-286 -283 -229 0
-287 -284 -230 0
-288 -285 -231 0
-289 -283 -232 0
-290 -284 -233 0
-291 -285 -234 0
-292 -283 -235 0
-293 -284 -236 0
-294 -285 -237 0
-295 -283 -238 0
-296 -284 -239 0
-297 -285 -240 0
-298 -283 -241 0
-299 -284 -242 0
-300 -285 -243 0
-301 -283 -244 0
-302 -284 -245 0
-303 -285 -246 0
-304 -283 -247 0
-305 -284 -248 0
-306 -285 -249 0
-307 -283 -250 0
-308 -284 -251 0
-309 -285 -252 0
-310 -283 -253 0
-311 -284 -254 0
-312 -285 -255 0
-313 -283 -256 0
-314 -284 -257 0
-315 -285 -258 0
-316 -283 -259 0
-317 -284 -260 0
-318 -285 -261 0
-319 -283 -262 0
-320 -284 -263 0
-321 -285 -264 0
-322 -283 -265 0
-323 -284 -266 0
-324 -285 -267 0
-325 -283 -268 0
-326 -284 -269 0
-327 -285 -270 0
-328 -283 -271 0
-329 -284 -272 0
-330 -285 -273 0
-331 -283 -274 0
-332 -284 -275 0
-333 -285 -276 0
-334 -283 -277 0
-335 -284 -278 0
-336 -285 -279 0
-337 -283 -280 0
-338 -284 -281 0
-339 -285 -282 0
-340 -283 0
-341 -284 0
-342 -285 0
-343 -286 -283 0
-344 -287 -284 0
-345 -288 -285 0
-346 -289 -283 0
-347 -290 -284 0
-348 -291 -285 0
-349 -292 -283 0
-350 -293 -284 0
-351 -294 -285 0
-352 -295 -283 0
-353 -296 -284 0
-354 -297 -285 0
-355 -298 -283 0
-356 -299 -284 0
-357 -300 -285 0
-358 -301 -283 0
-359 -302 -284 0
-360 -303 -285 0
-361 -304 -283 0
-362 -305 -284 0
-363 -306 -285 0
-364 -307 -283 0
-365 -308 -284 0
-366 -309 -285 0
-367 -310 -283 0
-368 -311 -284 0
-369 -312 -285 0
-370 -313 -283 0
-371 -314 -284 0
-372 -315 -285 0
-373 -316 -283 0
-374 -317 -284 0
-375 -318 -285 0
-298 -61 -1 0
-299 -62 -2 0
-300 -63 -3 0
-298 -64 -4 0
-299 -65 -5 0
-300 -66 -6 0
-298 -67 -7 0
-299 -68 -8 0
-300 -69 -9 0
-298 -70 -10 0
-299 -71 -11 0
-300 -72 -12 0
-298 -73 -13 0
-299 -74 -14 0
-300 -75 -15 0
-298 -76 -16 0
-299 -77 -17 0
-300 -78 -18 0
-298 -79 -19 0
-299 -80 -20 0
-300 -81 -21 0
-298 -82 -22 0
-299 -83 -23 0
-300 -84 -24 0
-298 -85 -25 0
-299 -86 -26 0
-300 -87 -27 0
-298 -88 -28 0
-299 -89 -29 0
-300 -90 -30 0
-298 -91 -31 0
-299 -92 -32 0
-300 -93 -33 0
-298 -94 -34 0
-299 -95 -35 0
-300 -96 -36 0
-298 -97 -37 0
-299 -98 -38 0
-300 -99 -39 0
-298 -100 -40 0
-299 -101 -41 0
-300 -102 -42 0
-298 -103 -43 0
-299 -104 -44 0
-300 -105 -45 0
-298 -106 -46 0
-299 -107 -47 0
-300 -108 -48 0
-298 -109 -49 0
-299 -110 -50 0
-300 -111 -51 0
-298 -112 -52 0
-299 -113 -53 0
-300 -114 -54 0
-298 -115 -55 0
-299 -116 -56 0
-300 -117 -57 0
-298 -118 -58 0
-299 -119 -59 0
-300 -120 -60 0
-298 -121 -61 0
-299 -122 -62 0
-300 -123 -63 0
-298 -124 -64 0
-299 -125 -65 0
-300 -126 -66 0
-298 -127 -67 0
-299 -128 -68 0
-300 -129 -69 0
-298 -130 -70 0
-299 -131 -71 0
-300 -132 -72 0
-298 -133 -73 0
-299 -134 -74 0
-300 -135 -75 0
-298 -136 -76 0
-299 -137 -77 0
-300 -138 -78 0
-298 -139 -79 0
-299 -140 -80 0
-300 -141 -81 0
-298 -142 -82 0
-299 -143 -83 0
-300 -144 -84 0
-298 -145 -85 0
-299 -146 -86 0
-300 -147 -87 0
-298 -148 -88 0
-299 -149 -89 0
-300 -150 -90 0
-298 -151 -91 0
-299 -152 -92 0
-300 -153 -93 0
-298 -154 -94 0
-299 -155 -95 0
-300 -156 -96 0
-298 -157 -97 0
-299 -158 -98 0
-300 -159 -99 0
-298 -160 -100 0
-299 -161 -101 0
-300 -162 -102 0
-298 -163 -103 0
-299 -164 -104 0
-300 -165 -105 0
-298 -166 -106 0
-299 -167 -107 0
-300 -168 -108 0
-298 -169 -109 0
-299 -170 -110 0
-300 -171 -111 0
-298 -172 -112 0
-299 -173 -113 0
-300 -174 -114 0
-298 -175 -115 0
-299 -176 -116 0
-300 -177 -117 0
-298 -178 -118 0
-299 -179 -119 0
-300 -180 -120 0
-298 -181 -121 0
-299 -182 -122 0
-300 -183 -123 0
-298 -184 -124 0
-299 -185 -125 0
-300 -186 -126 0
-298 -187 -127 0
-299 -188 -128 0
-300 -189 -129 0
-298 -190 -130 0
-299 -191 -131 0
-300 -192 -132 0
-298 -193 -133 0
-299 -194 -134 0
-300 -195 -135 0
-298 -196 -136 0
-299 -197 -137 0
-300 -198 -138 0
-298 -199 -139 0
-299 -200 -140 0
-300 -201 -141 0
-298 -202 -142 0
-299 -203 -143 0
-300 -204 -144 0
-298 -205 -145 0
-299 -206 -146 0
-300 -207 -147 0
-298 -208 -148 0
-299 -209 -149 0
-300 -210 -150 0
-298 -211 -151 0
-299 -212 -152 0
-300 -213 -153 0
-298 -214 -154 0
-299 -215 -155 0
-300 -216 -156 0
-298 -217 -157 0
-299 -218 -158 0
-300 -219 -159 0
-298 -220 -160 0
-299 -221 -161 0
-300 -222 -162 0
-298 -223 -163 0
-299 -224 -164 0
-300 -225 -165 0
-298 -226 -166 0
-299 -227 -167 0
-300 -228 -168 0
-298 -229 -169 0
-299 -230 -170 0
-300 -231 -171 0
-298 -232 -172 0
-299 -233 -173 0
-300 -234 -174 0
-298 -235 -175 0
-299 -236 -176 0
-300 -237 -177 0
-298 -238 -178 0
-299 -239 -179 0
-300 -240 -180 0
-298 -241 -181 0
-299 -242 -182 0
-300 -243 -183 0
-298 -244 -184 0
-299 -245 -185 0
-300 -246 -186 0
-298 -247 -187 0
-299 -248 -188 0
-300 -249 -189 0
-298 -250 -190 0
-299 -251 -191 0
-300 -252 -192 0
-298 -253 -193 0
-299 -254 -194 0
-300 -255 -195 0
-298 -256 -196 0
-299 -257 -197 0
-300 -258 -198 0
-298 -259 -199 0
-299 -260 -200 0
-300 -261 -201 0
-298 -262 -202 0
-299 -263 -203 0
-300 -264 -204 0
-298 -265 -205 0
-299 -266 -206 0
-300 -267 -207 0
-298 -268 -208 0
-299 -269 -209 0
-300 -270 -210 0
-298 -271 -211 0
-299 -272 -212 0
-300 -273 -213 0
-298 -274 -214 0
-299 -275 -215 0
-300 -276 -216 0
-298 -277 -217 0
-299 -278 -218 0
-300 -279 -219 0
-298 -280 -220 0
-299 -281 -221 0
-300 -282 -222 0
-298 -283 -223 0
-299 -284 -224 0
-300 -285 -225 0
-298 -286 -226 0
-299 -287 -227 0
-300 -288 -228 0
-298 -289 -229 0
-299 -290 -230 0
-300 -291 -231 0
-298 -292 -232 0
-299 -293 -233 0
-300 -294 -234 0
-298 -295 -235 0
-299 -296 -236 0
-300 -297 -237 0
-298 -238 0
-299 -239 0
-300 -240 0
-301 -298 -241 0
-302 -299 -242 0
-303 -300 -243 0
-304 -298 -244 0
-305 -299 -245 0
-306 -300 -246 0
-307 -298 -247 0
-308 -299 -248 0
-309 -300 -249 0
-310 -298 -250 0
-311 -299 -251 0
-312 -300 -252 0
-313 -298 -253 0
-314 -299 -254 0
-315 -300 -255 0
-316 -298 -256 0
-317 -299 -257 0
-318 -300 -258 0
-319 -298 -259 0
-320 -299 -260 0
-321 -300 -261 0
-322 -298 -262 0
-323 -299 -263 0
-324 -300 -264 0
-325 -298 -265 0
-326 -299 -266 0
-327 -300 -267 0
-328 -298 -268 0
-329 -299 -269 0
-330 -300 -270 0
-331 -298 -271 0
-332 -299 -272 0
-333 -300 -273 0
-334 -298 -274 0
-335 -299 -275 0
-336 -300 -276 0
-337 -298 -277 0
-338 -299 -278 0
-339 -300 -279 0
-340 -298 -280 0
-341 -299 -281 0
-342 -300 -282 0
-343 -298 -283 0
-344 -299 -284 0
-345 -300 -285 0
-346 -298 -286 0
-347 -299 -287 0
-348 -300 -288 0
-349 -298 -289 0
-350 -299 -290 0
-351 -300 -291 0
-352 -298 -292 0
-353 -299 -293 0
-354 -300 -294 0
-355 -298 -295 0
-356 -299 -296 0
-357 -300 -297 0
-358 -298 0
-359 -299 0
-360 -300 0
-361 -301 -298 0
-362 -302 -299 0
-363 -303 -300 0
-364 -304 -298 0
-365 -305 -299 0
-366 -306 -300 0
-367 -307 -298 0
-368 -308 -299 0
-369 -309 -300 0
-370 -310 -298 0
-371 -311 -299 0
-372 -312 -300 0
-373 -313 -298 0
-374 -314 -299 0
-375 -315 -300 0
-313 -64 -1 0
-314 -65 -2 0
-315 -66 -3 0
-313 -67 -4 0
-314 -68 -5 0
-315 -69 -6 0
-313 -70 -7 0
-314 -71 -8 0
-315 -72 -9 0
-313 -73 -10 0
-314 -74 -11 0
-315 -75 -12 0
-313 -76 -13 0
-314 -77 -14 0
-315 -78 -15 0
-313 -79 -16 0
-314 -80 -17 0
-315 -81 -18 0
-313 -82 -19 0
-314 -83 -20 0
-315 -84 -21 0
-313 -85 -22 0
-314 -86 -23 0
-315 -87 -24 0
-313 -88 -25 0
-314 -89 -26 0
-315 -90 -27 0
-313 -91 -28 0
-314 -92 -29 0
-315 -93 -30 0
-313 -94 -31 0
-314 -95 -32 0
-315 -96 -33 0
-313 -97 -34 0
-314 -98 -35 0
-315 -99 -36 0
-313 -100 -37 0
-314 -101 -38 0
-315 -102 -39 0
-313 -103 -40 0
-314 -104 -41 0
-315 -105 -42 0
-313 -106 -43 0
-314 -107 -44 0
-315 -108 -45 0
-313 -109 -46 0
-314 -110 -47 0
-315 -111 -48 0
-313 -112 -49 0
-314 -113 -50 0
-315 -114 -51 0
-313 -115 -52 0
-314 -116 -53 0
-315 -117 -54 0
-313 -118 -55 0
-314 -119 -56 0
-315 -120 -57 0
-313 -121 -58 0
-314 -122 -59 0
-315 -123 -60 0
-313 -124 -61 0
-314 -125 -62 0
-315 -126 -63 0
-313 -127 -64 0
-314 -128 -65 0
-315 -129 -66 0
-313 -130 -67 0
-314 -131 -68 0
-315 -132 -69 0
-313 -133 -70 0
-314 -134 -71 0
-315 -135 -72 0
-313 -136 -73 0
-314 -137 -74 0
-315 -138 -75 0
-313 -139 -76 0
-314 -140 -77 0
-315 -141 -78 0
-313 -142 -79 0
-314 -143 -80 0
-315 -144 -81 0
-313 -145 -82 0
-314 -146 -83 0
-315 -147 -84 0
-313 -148 -85 0
-314 -149 -86 0
-315 -150 -87 0
-313 -151 -88 0
-314 -152 -89 0
-315 -153 -90 0
-313 -154 -91 0
-314 -155 -92 0
-315 -156 -93 0
-313 -157 -94 0
-314 -158 -95 0
-315 -159 -96 0
-313 -160 -97 0
-314 -161 -98 0
-315 -162 -99 0
-313 -163 -100 0
-314 -164 -101 0
-315 -165 -102 0
-313 -166 -103 0
-314 -167 -104 0
-315 -168 -105 0
-313 -169 -106 0
-314 -170 -107 0
-315 -171 -108 0
-313 -172 -109 0
-314 -173 -110 0
-315 -174 -111 0
-313 -175 -112 0
-314 -176 -113 0
-315 -177 -114 0
-313 -178 -115 0
-314 -179 -116 0
-315 -180 -117 0
-313 -181 -118 0
-314 -182 -119 0
-315 -183 -120 0
-313 -184 -121 0
-314 -185 -122 0
-315 -186 -123 0
-313 -187 -124 0
-314 -188 -125 0
-315 -189 -126 0
-313 -190 -127 0
-314 -191 -128 0
-315 -192 -129 0
-313 -193 -130 0
-314 -194 -131 0
-315 -195 -132 0
-313 -196 -133 0
-314 -197 -134 0
-315 -198 -135 0
-313 -199 -136 0
-314 -200 -137 0
-315 -201 -138 0
-313 -202 -139 0
-314 -203 -140 0
-315 -204 -141 0
-313 -205 -142 0
-314 -206 -143 0
-315 -207 -144 0
-313 -208 -145 0
-314 -209 -146 0
-315 -210 -147 0
-313 -211 -148 0
-314 -212 -149 0
-315 -213 -150 0
-313 -214 -151 0
-314 -215 -152 0
-315 -216 -153 0
-313 -217 -154 0
-314 -218 -155 0
-315 -219 -156 0
-313 -220 -157 0
-314 -221 -158 0
-315 -222 -159 0
-313 -223 -160 0
-314 -224 -161 0
-315 -225 -162 0
-313 -226 -163 0
-314 -227 -164 0
-315 -228 -165 0
-313 -229 -166 0
-314 -230 -167 0
-315 -231 -168 0
-313 -232 -169 0
-314 -233 -170 0
-315 -234 -171 0
-313 -235 -172 0
-314 -236 -173 0
-315 -237 -174 0
-313 -238 -175 0
-314 -239 -176 0
-315 -240 -177 0
-313 -241 -178 0
-314 -242 -179 0
-315 -243 -180 0
-313 -244 -181 0
-314 -245 -182 0
-315 -246 -183 0
-313 -247 -184 0
-314 -248 -185 0
-315 -249 -186 0
-313 -250 -187 0
-314 -251 -188 0
-315 -252 -189 0
-313 -253 -190 0
-314 -254 -191 0
-315 -255 -192 0
-313 -256 -193 0
-314 -257 -194 0
-315 -258 -195 0
-313 -259 -196 0
-314 -260 -197 0
-315 -261 -198 0
-313 -262 -199 0
-314 -263 -200 0
-315 -264 -201 0
-313 -265 -202 0
-314 -266 -203 0
-315 -267 -204 0
-313 -268 -205 0
-314 -269 -206 0
-315 -270 -207 0
-313 -271 -208 0
-314 -272 -209 0
-315 -273 -210 0
-313 -274 -211 0
-314 -275 -212 0
-315 -276 -213 0
-313 -277 -214 0
-314 -278 -215 0
-315 -279 -216 0
-313 -280 -217 0
-314 -281 -218 0
-315 -282 -219 0
-313 -283 -220 0
-314 -284 -221 0
-315 -285 -222 0
-313 -286 -223 0
-314 -287 -224 0
-315 -288 -225 0
-313 -289 -226 0
-314 -290 -227 0
-315 -291 -228 0
-313 -292 -229 0
-314 -293 -230 0
-315 -294 -231 0
-313 -295 -232 0
-314 -296 -233 0
-315 -297 -234 0
-313 -298 -235 0
-314 -299 -236 0
-315 -300 -237 0
-313 -301 -238 0
-314 -302 -239 0
-315 -303 -240 0
-313 -304 -241 0
-314 -305 -242 0
-315 -306 -243 0
-313 -307 -244 0
-314 -308 -245 0
-315 -309 -246 0
-313 -310 -247 0
-314 -311 -248 0
-315 -312 -249 0
-313 -250 0
-314 -251 0
-315 -252 0
-316 -313 -253 0
-317 -314 -254 0
-318 -315 -255 0
-319 -313 -256 0
-320 -314 -257 0
-321 -315 -258 0
-322 -313 -259 0
-323 -314 -260 0
-324 -315 -261 0
-325 -313 -262 0
-326 -314 -263 0
-327 -315 -264 0
-328 -313 -265 0
-329 -314 -266 0
-330 -315 -267 0
-331 -313 -268 0
-332 -314 -269 0
-333 -315 -270 0
-334 -313 -271 0
-335 -314 -272 0
-336 -315 -273 0
-337 -313 -274 0
-338 -314 -275 0
-339 -315 -276 0
-340 -313 -277 0
-341 -314 -278 0
-342 -315 -279 0
-343 -313 -280 0
-344 -314 -281 0
-345 -315 -282 0
-346 -313 -283 0
-347 -314 -284 0
-348 -315 -285 0
-349 -313 -286 0
-350 -314 -287 0
-351 -315 -288 0
-352 -313 -289 0
-353 -314 -290 0
-354 -315 -291 0
-355 -313 -292 0
-356 -314 -293 0
-357 -315 -294 0
-358 -313 -295 0
-359 -314 -296 0
-360 -315 -297 0
-361 -313 -298 0
-362 -314 -299 0
-363 -315 -300 0
-364 -313 -301 0
-365 -314 -302 0
-366 -315 -303 0
-367 -313 -304 0
-368 -314 -305 0
-369 -315 -306 0
-370 -313 -307 0
-371 -314 -308 0
-372 -315 -309 0
-373 -313 -310 0
-374 -314 -311 0
-375 -315 -312 0
-328 -67 -1 0
-329 -68 -2 0
-330 -69 -3 0
-328 -70 -4 0
-329 -71 -5 0
-330 -72 -6 0
-328 -73 -7 0
-329 -74 -8 0
-330 -75 -9 0
-328 -76 -10 0
-329 -77 -11 0
-330 -78 -12 0
-328 -79 -13 0
-329 -80 -14 0
-330 -81 -15 0
-328 -82 -16 0
-329 -83 -17 0
-330 -84 -18 0
-328 -85 -19 0
-329 -86 -20 0
-330 -87 -21 0
-328 -88 -22 0
-329 -89 -23 0
-330 -90 -24 0
-328 -91 -25 0
-329 -92 -26 0
-330 -93 -27 0
-328 -94 -28 0
-329 -95 -29 0
-330 -96 -30 0
-328 -97 -31 0
-329 -98 -32 0
-330 -99 -33 0
-328 -100 -34 0
-329 -101 -35 0
-330 -102 -36 0
-328 -103 -37 0
-329 -104 -38 0
-330 -105 -39 0
-328 -106 -40 0
-329 -107 -41 0
-330 -108 -42 0
-328 -109 -43 0
-329 -110 -44 0
-330 -111 -45 0
-328 -112 -46 0
-329 -113 -47 0
-330 -114 -48 0
-328 -115 -49 0
-329 -116 -50 0
-330 -117 -51 0
-328 -118 -52 0
-329 -119 -53 0
-330 -120 -54 0
-328 -121 -55 0
-329 -122 -56 0
-330 -123 -57 0
-328 -124 -58 0
-329 -125 -59 0
-330 -126 -60 0
-328 -127 -61 0
-329 -128 -62 0
-330 -129 -63 0
-328 -130 -64 0
-329 -131 -65 0
-330 -132 -66 0
-328 -133 -67 0
-329 -134 -68 0
-330 -135 -69 0
-328 -136 -70 0
-329 -137 -71 0
-330 -138 -72 0
-328 -139 -73 0
-329 -140 -74 0
-330 -141 -75 0
-328 -142 -76 0
-329 -143 -77 0
-330 -144 -78 0
-328 -145 -79 0
-329 -146 -80 0
-330 -147 -81 0
-328 -148 -82 0
-329 -149 -83 0
-330 -150 -84 0
-328 -151 -85 0
-329 -152 -86 0
-330 -153 -87 0
-328 -154 -88 0
-329 -155 -89 0
-330 -156 -90 0
-328 -157 -91 0
-329 -158 -92 0
-330 -159 -93 0
-328 -160 -94 0
-329 -161 -95 0
-330 -162 -96 0
-328 -163 -97 0
-329 -164 -98 0
-330 -165 -99 0
-328 -166 -100 0
-329 -167 -101 0
-330 -168 -102 0
-328 -169 -103 0
-329 -170 -104 0
-330 -171 -105 0
-328 -172 -106 0
-329 -173 -107 0
-330 -174 -108 0
-328 -175 -109 0
-329 -176 -110 0
-330 -177 -111 0
-328 -178 -112 0
-329 -179 -113 0
-330 -180 -114 0
-328 -181 -115 0
-329 -182 -116 0
-330 -183 -117 0
-328 -184 -118 0
-329 -185 -119 0
-330 -186 -120 0
-328 -187 -121 0
-329 -188 -122 0
-330 -189 -123 0
-328 -190 -124 0
-329 -191 -125 0
-330 -192 -126 0
-328 -193 -127 0
-329 -194 -128 0
-330 -195 -129 0
-328 -196 -130 0
-329 -197 -131 0
-330 -198 -132 0
-328 -199 -133 0
-329 -200 -134 0
-330 -201 -135 0
-328 -202 -136 0
-329 -203 -137 0
-330 -204 -138 0
-328 -205 -139 0
-329 -206 -140 0
-330 -207 -141 0
-328 -208 -142 0
-329 -209 -143 0
-330 -210 -144 0
-328 -211 -145 0
-329 -212 -146 0
-330 -213 -147 0
-328 -214 -148 0
-329 -215 -149 0
-330 -216 -150 0
-328 -217 -151 0
-329 -218 -152 0
-330 -219 -153 0
-328 -220 -154 0
-329 -221 -155 0
-330 -222 -156 0
-328 -223 -157 0
-329 -224 -158 0
-330 -225 -159 0
-328 -226 -160 0
-329 -227 -161 0
-330 -228 -162 0
-328 -229 -163 0
-329 -230 -164 0
-330 -231 -165 0
-328 -232 -166 0
-329 -233 -167 0
-330 -234 -168 0
-328 -235 -169 0
-329 -236 -170 0
-330 -237 -171 0
-328 -238 -172 0
-329 -239 -173 0
-330 -240 -174 0
-328 -241 -175 0
-329 -242 -176 0
-330 -243 -177 0
-328 -244 -178 0
-329 -245 -179 0
-330 -246 -180 0
-328 -247 -181 0
-329 -248 -182 0
-330 -249 -183 0
-328 -250 -184 0
-329 -251 -185 0
-330 -252 -186 0
-328 -253 -187 0
-329 -254 -188 0
-330 -255 -189 0
-328 -256 -190 0
-329 -257 -191 0
-330 -258 -192 0
-328 -259 -193 0
-329 -260 -194 0
-330 -261 -195 0
-328 -262 -196 0
-329 -263 -197 0
-330 -264 -198 0
-328 -265 -199 0
-329 -266 -200 0
-330 -267 -201 0
-328 -268 -202 0
-329 -269 -203 0
-330 -270 -204 0
-328 -271 -205 0
-329 -272 -206 0
-330 -273 -207 0
-328 -274 -208 0
-329 -275 -209 0
-330 -276 -210 0
-328 -277 -211 0
-329 -278 -212 0
-330 -279 -213 0
-328 -280 -214 0
-329 -281 -215 0
-330 -282 -216 0
-328 -283 -217 0
-329 -284 -218 0
-330 -285 -219 0
-328 -286 -220 0
-329 -287 -221 0
-330 -288 -222 0
-328 -289 -223 0
-329 -290 -224 0
-330 -291 -225 0
-328 -292 -226 0
-329 -293 -227 0
-330 -294 -228 0
-328 -295 -229 0
-329 -296 -230 0
-330 -297 -231 0
-328 -298 -232 0
-329 -299 -233 0
-330 -300 -234 0
-328 -301 -235 0
-329 -302 -236 0
-330 -303 -237 0
-328 -304 -238 0
-329 -305 -239 0
-330 -306 -240 0
-328 -307 -241 0
-329 -308 -242 0
-330 -309 -243 0
-328 -310 -244 0
-329 -311 -245 0
-330 -312 -246 0
-328 -313 -247 0
-329 -314 -248 0
-330 -315 -249 0
-328 -316 -250 0
-329 -317 -251 0
-330 -318 -252 0
-328 -319 -253 0
-329 -320 -254 0
-330 -321 -255 0
-328 -322 -256 0
-329 -323 -257 0
-330 -324 -258 0
-328 -325 -259 0
-329 -326 -260 0
-330 -327 -261 0
-328 -262 0
-329 -263 0
-330 -264 0
-331 -328 -265 0
-332 -329 -266 0
-333 -330 -267 0
-334 -328 -268 0
-335 -329 -269 0
-336 -330 -270 0
-337 -328 -271 0
-338 -329 -272 0
-339 -330 -273 0
-340 -328 -274 0
-341 -329 -275 0
-342 -330 -276 0
-343 -328 -277 0
-344 -329 -278 0
-345 -330 -279 0
-346 -328 -280 0
-347 -329 -281 0
-348 -330 -282 0
-349 -328 -283 0
-350 -329 -284 0
-351 -330 -285 0
-352 -328 -286 0
-353 -329 -287 0
-354 -330 -288 0
-355 -328 -289 0
-356 -329 -290 0
-357 -330 -291 0
-358 -328 -292 0
-359 -329 -293 0
-360 -330 -294 0
-361 -328 -295 0
-362 -329 -296 0
-363 -330 -297 0
-364 -328 -298 0
-365 -329 -299 0
-366 -330 -300 0
-367 -328 -301 0
-368 -329 -302 0
-369 -330 -303 0
-370 -328 -304 0
-371 -329 -305 0
-372 -330 -306 0
-373 -328 -307 0
-374 -329 -308 0
-375 -330 -309 0
-343 -70 -1 0
-344 -71 -2 0
-345 -72 -3 0
-343 -73 -4 0
-344 -74 -5 0
-345 -75 -6 0
-343 -76 -7 0
-344 -77 -8 0
-345 -78 -9 0
-343 -79 -10 0
-344 -80 -11 0
-345 -81 -12 0
-343 -82 -13 0
-344 -83 -14 0
-345 -84 -15 0
-343 -85 -16 0
-344 -86 -17 0
-345 -87 -18 0
-343 -88 -19 0
-344 -89 -20 0
-345 -90 -21 0
-343 -91 -22 0
-344 -92 -23 0
-345 -93 -24 0
-343 -94 -25 0
-344 -95 -26 0
-345 -96 -27 0
-343 -97 -28 0
-344 -98 -29 0
-345 -99 -30 0
-343 -100 -31 0
-344 -101 -32 0
-345 -102 -33 0
-343 -103 -34 0
-344 -104 -35 0
-345 -105 -36 0
-343 -106 -37 0
-344 -107 -38 0
-345 -108 -39 0
-343 -109 -40 0
-344 -110 -41 0
-345 -111 -42 0
-343 -112 -43 0
-344 -113 -44 0
-345 -114 -45 0
-343 -115 -46 0
-344 -116 -47 0
-345 -117 -48 0
-343 -118 -49 0
-344 -119 -50 0
-345 -120 -51 0
-343 -121 -52 0
-344 -122 -53 0
-345 -123 -54 0
-343 -124 -55 0
-344 -125 -56 0
-345 -126 -57 0
-343 -127 -58 0
-344 -128 -59 0
-345 -129 -60 0
-343 -130 -61 0
-344 -131 -62 0
-345 -132 -63 0
-343 -133 -64 0
-344 -134 -65 0
-345 -135 -66 0
-343 -136 -67 0
-344 -137 -68 0
-345 -138 -69 0
-343 -139 -70 0
-344 -140 -71 0
-345 -141 -72 0
-343 -142 -73 0
-344 -143 -74 0
-345 -144 -75 0
-343 -145 -76 0
-344 -146 -77 0
-345 -147 -78 0
-343 -148 -79 0
-344 -149 -80 0
-345 -150 -81 0
-343 -151 -82 0
-344 -152 -83 0
-345 -153 -84 0
-343 -154 -85 0
-344 -155 -86 0
-345 -156 -87 0
-343 -157 -88 0
-344 -158 -89 0
-345 -159 -90 0
-343 -160 -91 0
-344 -161 -92 0
-345 -162 -93 0
-343 -163 -94 0
-344 -164 -95 0
-345 -165 -96 0
-343 -166 -97 0
-344 -167 -98 0
-345 -168 -99 0
-343 -169 -100 0
-344 -170 -101 0
-345 -171 -102 0
-343 -172 -103 0
-344 -173 -104 0
-345 -174 -105 0
-343 -175 -106 0
-344 -176 -107 0
-345 -177 -108 0
-343 -178 -109 0
-344 -179 -110 0
-345 -180 -111 0
-343 -181 -112 0
-344 -182 -113 0
-345 -183 -114 0
-343 -184 -115 0
-344 -185 -116 0
-345 -186 -117 0
-343 -187 -118 0
-344 -188 -119 0
-345 -189 -120 0
-343 -190 -121 0
-344 -191 -122 0
-345 -192 -123 0
-343 -193 -124 0
-344 -194 -125 0
-345 -195 -126 0
-343 -196 -127 0
-344 -197 -128 0
-345 -198 -129 0
-343 -199 -130 0
-344 -200 -131 0
-345 -201 -132 0
-343 -202 -133 0
-344 -203 -134 0
-345 -204 -135 0
-343 -205 -136 0
-344 -206 -137 0
-345 -207 -138 0
-343 -208 -139 0
-344 -209 -140 0
-345 -210 -141 0
-343 -211 -142 0
-344 -212 -143 0
-345 -213 -144 0
-343 -214 -145 0
-344 -215 -146 0
-345 -216 -147 0
-343 -217 -148 0
-344 -218 -149 0
-345 -219 -150 0
-343 -220 -151 0
-344 -221 -152 0
-345 -222 -153 0
-343 -223 -154 0
-344 -224 -155 0
-345 -225 -156 0
-343 -226 -157 0
-344 -227 -158 0
-345 -228 -159 0
-343 -229 -160 0
-344 -230 -161 0
-345 -231 -162 0
-343 -232 -163 0
-344 -233 -164 0
-345 -234 -165 0
-343 -235 -166 0
-344 -236 -167 0
-345 -237 -168 0
-343 -238 -169 0
-344 -239 -170 0
-345 -240 -171 0
-343 -241 -172 0
-344 -242 -173 0
-345 -243 -174 0
-343 -244 -175 0
-344 -245 -176 0
-345 -246 -177 0
-343 -247 -178 0
-344 -248 -179 0
-345 -249 -180 0
-343 -250 -181 0
-344 -251 -182 0
-345 -252 -183 0
-343 -253 -184 0
-344 -254 -185 0
-345 -255 -186 0
-343 -256 -187 0
-344 -257 -188 0
-345 -258 -189 0
-343 -259 -190 0
-344 -260 -191 0
-345 -261 -192 0
-343 -262 -193 0
-344 -263 -194 0
-345 -264 -195 0
-343 -265 -196 0
-344 -266 -197 0
-345 -267 -198 0
-343 -268 -199 0
-344 -269 -200 0
-345 -270 -201 0
-343 -271 -202 0
-344 -272 -203 0
-345 -273 -204 0
-343 -274 -205 0
-344 -275 -206 0
-345 -276 -207 0
-343 -277 -208 0
-344 -278 -209 0
-345 -279 -210 0
-343 -280 -211 0
-344 -281 -212 0
-345 -282 -213 0
-343 -283 -214 0
-344 -284 -215 0
-345 -285 -216 0
-343 -286 -217 0
-344 -287 -218 0
-345 -288 -219 0
-343 -289 -220 0
-344 -290 -221 0
-345 -291 -222 0
-343 -292 -223 0
-344 -293 -224 0
-345 -294 -225 0
-343 -295 -226 0
-344 -296 -227 0
-345 -297 -228 0
-343 -298 -229 0
-344 -299 -230 0
-345 -300 -231 0
-343 -301 -232 0
-344 -302 -233 0
-345 -303 -234 0
-343 -304 -235 0
-344 -305 -236 0
-345 -306 -237 0
-343 -307 -238 0
-344 -308 -239 0
-345 -309 -240 0
-343 -310 -241 0
-344 -311 -242 0
-345 -312 -243 0
-343 -313 -244 0
-344 -314 -245 0
-345 -315 -246 0
-343 -316 -247 0
-344 -317 -248 0
-345 -318 -249 0
-343 -319 -250 0
-344 -320 -251 0
-345 -321 -252 0
-343 -322 -253 0
-344 -323 -254 0
-345 -324 -255 0
-343 -325 -256 0
-344 -326 -257 0
-345 -327 -258 0
-343 -328 -259 0
-344 -329 -260 0
-345 -330 -261 0
-343 -331 -262 0
-344 -332 -263 0
-345 -333 -264 0
-343 -334 -265 0
-344 -335 -266 0
-345 -336 -267 0
-343 -337 -268 0
-344 -338 -269 0
-345 -339 -270 0
-343 -340 -271 0
-344 -341 -272 0
-345 -342 -273 0
-343 -274 0
-344 -275 0
-345 -276 0
-346 -343 -277 0
-347 -344 -278 0
-348 -345 -279 0
-349 -343 -280 0
-350 -344 -281 0
-351 -345 -282 0
-352 -343 -283 0
-353 -344 -284 0
-354 -345 -285 0
-355 -343 -286 0
-356 -344 -287 0
-357 -345 -288 0
-358 -343 -289 0
-359 -344 -290 0
-360 -345 -291 0
-361 -343 -292 0
-362 -344 -293 0
-363 -345 -294 0
-364 -343 -295 0
-365 -344 -296 0
-366 -345 -297 0
-367 -343 -298 0
-368 -344 -299 0
-369 -345 -300 0
-370 -343 -301 0
-371 -344 -302 0
-372 -345 -303 0
-373 -343 -304 0
-374 -344 -305 0
-375 -345 -306 0
-358 -73 -1 0
-359 -74 -2 0
-360 -75 -3 0
-358 -76 -4 0
-359 -77 -5 0
-360 -78 -6 0
-358 -79 -7 0
-359 -80 -8 0
-360 -81 -9 0
-358 -82 -10 0
-359 -83 -11 0
-360 -84 -12 0
-358 -85 -13 0
-359 -86 -14 0
-360 -87 -15 0
-358 -88 -16 0
-359 -89 -17 0
-360 -90 -18 0
-358 -91 -19 0
-359 -92 -20 0
-360 -93 -21 0
-358 -94 -22 0
-359 -95 -23 0
-360 -96 -24 0
-358 -97 -25 0
-359 -98 -26 0
-360 -99 -27 0
-358 -100 -28 0
-359 -101 -29 0
-360 -102 -30 0
-358 -103 -31 0
-359 -104 -32 0
-360 -105 -33 0
-358 -106 -34 0
-359 -107 -35 0
-360 -108 -36 0
-358 -109 -37 0
-359 -110 -38 0
-360 -111 -39 0
-358 -112 -40 0
-359 -113 -41 0
-360 -114 -42 0
-358 -115 -43 0
-359 -116 -44 0
-360 -117 -45 0
-358 -118 -46 0
-359 -119 -47 0
-360 -120 -48 0
-358 -121 -49 0
-359 -122 -50 0
-360 -123 -51 0
-358 -124 -52 0
-359 -125 -53 0
-360 -126 -54 0
-358 -127 -55 0
-359 -128 -56 0
-360 -129 -57 0
-358 -130 -58 0
-359 -131 -59 0
-360 -132 -60 0
-358 -133 -61 0
-359 -134 -62 0
-360 -135 -63 0
-358 -136 -64 0
-359 -137 -65 0
-360 -138 -66 0
-358 -139 -67 0
-359 -140 -68 0
-360 -141 -69 0
-358 -142 -70 0
-359 -143 -71 0
-360 -144 -72 0
-358 -145 -73 0
-359 -146 -74 0
-360 -147 -75 0
-358 -148 -76 0
-359 -149 -77 0
-360 -150 -78 0
-358 -151 -79 0
-359 -152 -80 0
-360 -153 -81 0
-358 -154 -82 0
-359 -155 -83 0
-360 -156 -84 0
-358 -157 -85 0
-359 -158 -86 0
-360 -159 -87 0
-358 -160 -88 0
-359 -161 -89 0
-360 -162 -90 0
-358 -163 -91 0
-359 -164 -92 0
-360 -165 -93 0
-358 -166 -94 0
-359 -167 -95 0
-360 -168 -96 0
-358 -169 -97 0
-359 -170 -98 0
-360 -171 -99 0
-358 -172 -100 0
-359 -173 -101 0
-360 -174 -102 0
-358 -175 -103 0
-359 -176 -104 0
-360 -177 -105 0
-358 -178 -106 0
-359 -179 -107 0
-360 -180 -108 0
-358 -181 -109 0
-359 -182 -110 0
-360 -183 -111 0
-358 -184 -112 0
-359 -185 -113 0
-360 -186 -114 0
-358 -187 -115 0
-359 -188 -116 0
-360 -189 -117 0
-358 -190 -118 0
-359 -191 -119 0
-360 -192 -120 0
-358 -193 -121 0
-359 -194 -122 0
-360 -195 -123 0
-358 -196 -124 0
-359 -197 -125 0
-360 -198 -126 0
-358 -199 -127 0
-359 -200 -128 0
-360 -201 -129 0
-358 -202 -130 0
-359 -203 -131 0
-360 -204 -132 0
-358 -205 -133 0
-359 -206 -134 0
-360 -207 -135 0
-358 -208 -136 0
-359 -209 -137 0
-360 -210 -138 0
-358 -211 -139 0
-359 -212 -140 0
-360 -213 -141 0
-358 -214 -142 0
-359 -215 -143 0
-360 -216 -144 0
-358 -217 -145 0
-359 -218 -146 0
-360 -219 -147 0
-358 -220 -148 0
-359 -221 -149 0
-360 -222 -150 0
-358 -223 -151 0
-359 -224 -152 0
-360 -225 -153 0
-358 -226 -154 0
-359 -227 -155 0
-360 -228 -156 0
-358 -229 -157 0
-359 -230 -158 0
-360 -231 -159 0
-358 -232 -160 0
-359 -233 -161 0
-360 -234 -162 0
-358 -235 -163 0
-359 -236 -164 0
-360 -237 -165 0
-358 -238 -166 0
-359 -239 -167 0
-360 -240 -168 0
-358 -241 -169 0
-359 -242 -170 0
-360 -243 -171 0
-358 -244 -172 0
-359 -245 -173 0
-360 -246 -174 0
-358 -247 -175 0
-359 -248 -176 0
-360 -249 -177 0
-358 -250 -178 0
-359 -251 -179 0
-360 -252 -180 0
-358 -253 -181 0
-359 -254 -182 0
-360 -255 -183 0
-358 -256 -184 0
-359 -257 -185 0
-360 -258 -186 0
-358 -259 -187 0
-359 -260 -188 0
-360 -261 -189 0
-358 -262 -190 0
-359 -263 -191 0
-360 -264 -192 0
-358 -265 -193 0
-359 -266 -194 0
-360 -267 -195 0
-358 -268 -196 0
-359 -269 -197 0
-360 -270 -198 0
-358 -271 -199 0
-359 -272 -200 0
-360 -273 -201 0
-358 -274 -202 0
-359 -275 -203 0
-360 -276 -204 0
-358 -277 -205 0
-359 -278 -206 0
-360 -279 -207 0
-358 -280 -208 0
-359 -281 -209 0
-360 -282 -210 0
-358 -283 -211 0
-359 -284 -212 0
-360 -285 -213 0
-358 -286 -214 0
-359 -287 -215 0
-360 -288 -216 0
-358 -289 -217 0
-359 -290 -218 0
-360 -291 -219 0
-358 -292 -220 0
-359 -293 -221 0
-360 -294 -222 0
-358 -295 -223 0
-359 -296 -224 0
-360 -297 -225 0
-358 -298 -226 0
-359 -299 -227 0
-360 -300 -228 0
-358 -301 -229 0
-359 -302 -230 0
-360 -303 -231 0
-358 -304 -232 0
-359 -305 -233 0
-360 -306 -234 0
-358 -307 -235 0
-359 -308 -236 0
-360 -309 -237 0
-358 -310 -238 0
-359 -311 -239 0
-360 -312 -240 0
-358 -313 -241 0
-359 -314 -242 0
-360 -315 -243 0
-358 -316 -244 0
-359 -317 -245 0
-360 -318 -246 0
-358 -319 -247 0
-359 -320 -248 0
-360 -321 -249 0
-358 -322 -250 0
-359 -323 -251 0
-360 -324 -252 0
-358 -325 -253 0
-359 -326 -254 0
-360 -327 -255 0
-358 -328 -256 0
-359 -329 -257 0
-360 -330 -258 0
-358 -331 -259 0
-359 -332 -260 0
-360 -333 -261 0
-358 -334 -262 0
-359 -335 -263 0
-360 -336 -264 0
-358 -337 -265 0
-359 -338 -266 0
-360 -339 -267 0
-358 -340 -268 0
-359 -341 -269 0
-360 -342 -270 0
-358 -343 -271 0
-359 -344 -272 0
-360 -345 -273 0
-358 -346 -274 0
-359 -347 -275 0
-360 -348 -276 0
-358 -349 -277 0
-359 -350 -278 0
-360 -351 -279 0
-358 -352 -280 0
-359 -353 -281 0
-360 -354 -282 0
-358 -355 -283 0
-359 -356 -284 0
-360 -357 -285 0
-358 -286 0
-359 -287 0
-360 -288 0
-361 -358 -289 0
-362 -359 -290 0
-363 -360 -291 0
-364 -358 -292 0
-365 -359 -293 0
-366 -360 -294 0
-367 -358 -295 0
-368 -359 -296 0
-369 -360 -297 0
-370 -358 -298 0
-371 -359 -299 0
-372 -360 -300 0
-373 -358 -301 0
-374 -359 -302 0
-375 -360 -303 0
-373 -76 -1 0
-374 -77 -2 0
-375 -78 -3 0
-373 -79 -4 0
-374 -80 -5 0
-375 -81 -6 0
-373 -82 -7 0
-374 -83 -8 0
-375 -84 -9 0
-373 -85 -10 0
-374 -86 -11 0
-375 -87 -12 0
-373 -88 -13 0
-374 -89 -14 0
-375 -90 -15 0
-373 -91 -16 0
-374 -92 -17 0
-375 -93 -18 0
-373 -94 -19 0
-374 -95 -20 0
-375 -96 -21 0
-373 -97 -22 0
-374 -98 -23 0
-375 -99 -24 0
-373 -100 -25 0
-374 -101 -26 0
-375 -102 -27 0
-373 -103 -28 0
-374 -104 -29 0
-375 -105 -30 0
-373 -106 -31 0
-374 -107 -32 0
-375 -108 -33 0
-373 -109 -34 0
-374 -110 -35 0
-375 -111 -36 0
-373 -112 -37 0
-374 -113 -38 0
-375 -114 -39 0
-373 -115 -40 0
-374 -116 -41 0
-375 -117 -42 0
-373 -118 -43 0
-374 -119 -44 0
-375 -120 -45 0
-373 -121 -46 0
-374 -122 -47 0
-375 -123 -48 0
-373 -124 -49 0
-374 -125 -50 0
-375 -126 -51 0
-373 -127 -52 0
-374 -128 -53 0
-375 -129 -54 0
-373 -130 -55 0
-374 -131 -56 0
-375 -132 -57 0
-373 -133 -58 0
-374 -134 -59 0
-375 -135 -60 0
-373 -136 -61 0
-374 -137 -62 0
-375 -138 -63 0
-373 -139 -64 0
-374 -140 -65 0
-375 -141 -66 0
-373 -142 -67 0
-374 -143 -68 0
-375 -144 -69 0
-373 -145 -70 0
-374 -146 -71 0
-375 -147 -72 0
-373 -148 -73 0
-374 -149 -74 0
-375 -150 -75 0
-373 -151 -76 0
-374 -152 -77 0
-375 -153 -78 0
-373 -154 -79 0
-374 -155 -80 0
-375 -156 -81 0
-373 -157 -82 0
-374 -158 -83 0
-375 -159 -84 0
-373 -160 -85 0
-374 -161 -86 0
-375 -162 -87 0
-373 -163 -88 0
-374 -164 -89 0
-375 -165 -90 0
-373 -166 -91 0
-374 -167 -92 0
-375 -168 -93 0
-373 -169 -94 0
-374 -170 -95 0
-375 -171 -96 0
-373 -172 -97 0
-374 -173 -98 0
-375 -174 -99 0
-373 -175 -100 0
-374 -176 -101 0
-375 -177 -102 0
-373 -178 -103 0
-374 -179 -104 0
-375 -180 -105 0
-373 -181 -106 0
-374 -182 -107 0
-375 -183 -108 0
-373 -184 -109 0
-374 -185 -110 0
-375 -186 -111 0
-373 -187 -112 0
-374 -188 -113 0
-375 -189 -114 0
-373 -190 -115 0
-374 -191 -116 0
-375 -192 -117 0
-373 -193 -118 0
-374 -194 -119 0
-375 -195 -120 0
-373 -196 -121 0
-374 -197 -122 0
-375 -198 -123 0
-373 -199 -124 0
-374 -200 -125 0
-375 -201 -126 0
-373 -202 -127 0
-374 -203 -128 0
-375 -204 -129 0
-373 -205 -130 0
-374 -206 -131 0
-375 -207 -132 0
-373 -208 -133 0
-374 -209 -134 0
-375 -210 -135 0
-373 -211 -136 0
-374 -212 -137 0
-375 -213 -138 0
-373 -214 -139 0
-374 -215 -140 0
-375 -216 -141 0
-373 -217 -142 0
-374 -218 -143 0
-375 -219 -144 0
-373 -220 -145 0
-374 -221 -146 0
-375 -222 -147 0
-373 -223 -148 0
-374 -224 -149 0
-375 -225 -150 0
-373 -226 -151 0
-374 -227 -152 0
-375 -228 -153 0
-373 -229 -154 0
-374 -230 -155 0
-375 -231 -156 0
-373 -232 -157 0
-374 -233 -158 0
-375 -234 -159 0
-373 -235 -160 0
-374 -236 -161 0
-375 -237 -162 0
-373 -238 -163 0
-374 -239 -164 0
-375 -240 -165 0
-373 -241 -166 0
-374 -242 -167 0
-375 -243 -168 0
-373 -244 -169 0
-374 -245 -170 0
-375 -246 -171 0
-373 -247 -172 0
-374 -248 -173 0
-375 -249 -174 0
-373 -250 -175 0
-374 -251 -176 0
-375 -252 -177 0
-373 -253 -178 0
-374 -254 -179 0
-375 -255 -180 0
-373 -256 -181 0
-374 -257 -182 0
-375 -258 -183 0
-373 -259 -184 0
-374 -260 -185 0
-375 -261 -186 0
-373 -262 -187 0
-374 -263 -188 0
-375 -264 -189 0
-373 -265 -190 0
-374 -266 -191 0
-375 -267 -192 0
-373 -268 -193 0
-374 -269 -194 0
-375 -270 -195 0
-373 -271 -196 0
-374 -272 -197 0
-375 -273 -198 0
-373 -274 -199 0
-374 -275 -200 0
-375 -276 -201 0
-373 -277 -202 0
-374 -278 -203 0
-375 -279 -204 0
-373 -280 -205 0
-374 -281 -206 0
-375 -282 -207 0
-373 -283 -208 0
-374 -284 -209 0
-375 -285 -210 0
-373 -286 -211 0
-374 -287 -212 0
-375 -288 -213 0
-373 -289 -214 0
-374 -290 -215 0
-375 -291 -216 0
-373 -292 -217 0
-374 -293 -218 0
-375 -294 -219 0
-373 -295 -220 0
-374 -296 -221 0
-375 -297 -222 0
-373 -298 -223 0
-374 -299 -224 0
-375 -300 -225 0
-373 -301 -226 0
-374 -302 -227 0
-375 -303 -228 0
-373 -304 -229 0
-374 -305 -230 0
-375 -306 -231 0
-373 -307 -232 0
-374 -308 -233 0
-375 -309 -234 0
-373 -310 -235 0
-374 -311 -236 0
-375 -312 -237 0
-373 -313 -238 0
-374 -314 -239 0
-375 -315 -240 0
-373 -316 -241 0
-374 -317 -242 0
-375 -318 -243 0
-373 -319 -244 0
-374 -320 -245 0
-375 -321 -246 0
-373 -322 -247 0
-374 -323 -248 0
-375 -324 -249 0
-373 -325 -250 0
-374 -326 -251 0
-375 -327 -252 0
-373 -328 -253 0
-374 -329 -254 0
-375 -330 -255 0
-373 -331 -256 0
-374 -332 -257 0
-375 -333 -258 0
-373 -334 -259 0
-374 -335 -260 0
-375 -336 -261 0
-373 -337 -262 0
-374 -338 -263 0
-375 -339 -264 0
-373 -340 -265 0
-374 -341 -266 0
-375 -342 -267 0
-373 -343 -268 0
-374 -344 -269 0
-375 -345 -270 0
-373 -346 -271 0
-374 -347 -272 0
-375 -348 -273 0
-373 -349 -274 0
-374 -350 -275 0
-375 -351 -276 0
-373 -352 -277 0
-374 -353 -278 0
-375 -354 -279 0
-373 -355 -280 0
-374 -356 -281 0
-375 -357 -282 0
-373 -358 -283 0
-374 -359 -284 0
-375 -360 -285 0
-373 -361 -286 0
-374 -362 -287 0
-375 -363 -288 0
-373 -364 -289 0
-374 -365 -290 0
-375 -366 -291 0
-373 -367 -292 0
-374 -368 -293 0
-375 -369 -294 0
-373 -370 -295 0
-374 -371 -296 0
-375 -372 -297 0
-373 -298 0
-374 -299 0
-375 -300 0
