p cnf 1029 48118
1 2 3 0
-1 -2 0
-1 -3 0
-2 -3 0
4 5 6 0
-4 -5 0
-4 -6 0
-5 -6 0
7 8 9 0
-7 -8 0
-7 -9 0
-8 -9 0
10 11 12 0
-10 -11 0
-10 -12 0
-11 -12 0
13 14 15 0
-13 -14 0
-13 -15 0
-14 -15 0
16 17 18 0
-16 -17 0
-16 -18 0
-17 -18 0
19 20 21 0
-19 -20 0
-19 -21 0
-20 -21 0
22 23 24 0
-22 -23 0
-22 -24 0
-23 -24 0
25 26 27 0
-25 -26 0
-25 -27 0
-26 -27 0
28 29 30 0
-28 -29 0
-28 -30 0
-29 -30 0
31 32 33 0
-31 -32 0
-31 -33 0
-32 -33 0
34 35 36 0
-34 -35 0
-34 -36 0
-35 -36 0
37 38 39 0
-37 -38 0
-37 -39 0
-38 -39 0
40 41 42 0
-40 -41 0
-40 -42 0
-41 -42 0
43 44 45 0
-43 -44 0
-43 -45 0
-44 -45 0
46 47 48 0
-46 -47 0
-46 -48 0
-47 -48 0
49 50 51 0
-49 -50 0
-49 -51 0
-50 -51 0
52 53 54 0
-52 -53 0
-52 -54 0
-53 -54 0
55 56 57 0
-55 -56 0
-55 -57 0
-56 -57 0
58 59 60 0
-58 -59 0
-58 -60 0
-59 -60 0
61 62 63 0
-61 -62 0
-61 -63 0
-62 -63 0
64 65 66 0
-64 -65 0
-64 -66 0
-65 -66 0
67 68 69 0
-67 -68 0
-67 -69 0
-68 -69 0
70 71 72 0
-70 -71 0
-70 -72 0
-71 -72 0
73 74 75 0
-73 -74 0
-73 -75 0
-74 -75 0
76 77 78 0
-76 -77 0
-76 -78 0
-77 -78 0
79 80 81 0
-79 -80 0
-79 -81 0
-80 -81 0
82 83 84 0
-82 -83 0
-82 -84 0
-83 -84 0
85 86 87 0
-85 -86 0
-85 -87 0
-86 -87 0
88 89 90 0
-88 -89 0
-88 -90 0
-89 -90 0
91 92 93 0
-91 -92 0
-91 -93 0
-92 -93 0
94 95 96 0
-94 -95 0
-94 -96 0
-95 -96 0
97 98 99 0
-97 -98 0
-97 -99 0
-98 -99 0
100 101 102 0
-100 -101 0
-100 -102 0
-101 -102 0
103 104 105 0
-103 -104 0
-103 -105 0
-104 -105 0
106 107 108 0
-106 -107 0
-106 -108 0
-107 -108 0
109 110 111 0
-109 -110 0
-109 -111 0
-110 -111 0
112 113 114 0
-112 -113 0
-112 -114 0
-113 -114 0
115 116 117 0
-115 -116 0
-115 -117 0
-116 -117 0
118 119 120 0
-118 -119 0
-118 -120 0
-119 -120 0
121 122 123 0
-121 -122 0
-121 -123 0
-122 -123 0
124 125 126 0
-124 -125 0
-124 -126 0
-125 -126 0
127 128 129 0
-127 -128 0
-127 -129 0
-128 -129 0
130 131 132 0
-130 -131 0
-130 -132 0
-131 -132 0
133 134 135 0
-133 -134 0
-133 -135 0
-134 -135 0
136 137 138 0
-136 -137 0
-136 -138 0
-137 -138 0
139 140 141 0
-139 -140 0
-139 -141 0
-140 -141 0
142 143 144 0
-142 -143 0
-142 -144 0
-143 -144 0
145 146 147 0
-145 -146 0
-145 -147 0
-146 -147 0
148 149 150 0
-148 -149 0
-148 -150 0
-149 -150 0
151 152 153 0
-151 -152 0
-151 -153 0
-152 -153 0
154 155 156 0
-154 -155 0
-154 -156 0
-155 -156 0
157 158 159 0
-157 -158 0
-157 -159 0
-158 -159 0
160 161 162 0
-160 -161 0
-160 -162 0
-161 -162 0
163 164 165 0
-163 -164 0
-163 -165 0
-164 -165 0
166 167 168 0
-166 -167 0
-166 -168 0
-167 -168 0
169 170 171 0
-169 -170 0
-169 -171 0
-170 -171 0
172 173 174 0
-172 -173 0
-172 -174 0
-173 -174 0
175 176 177 0
-175 -176 0
-175 -177 0
-176 -177 0
178 179 180 0
-178 -179 0
-178 -180 0
-179 -180 0
181 182 183 0
-181 -182 0
-181 -183 0
-182 -183 0
184 185 186 0
-184 -185 0
-184 -186 0
-185 -186 0
187 188 189 0
-187 -188 0
-187 -189 0
-188 -189 0
190 191 192 0
-190 -191 0
-190 -192 0
-191 -192 0
193 194 195 0
-193 -194 0
-193 -195 0
-194 -195 0
196 197 198 0
-196 -197 0
-196 -198 0
-197 -198 0
199 200 201 0
-199 -200 0
-199 -201 0
-200 -201 0
202 203 204 0
-202 -203 0
-202 -204 0
-203 -204 0
205 206 207 0
-205 -206 0
-205 -207 0
-206 -207 0
208 209 210 0
-208 -209 0
-208 -210 0
-209 -210 0
211 212 213 0
-211 -212 0
-211 -213 0
-212 -213 0
214 215 216 0
-214 -215 0
-214 -216 0
-215 -216 0
217 218 219 0
-217 -218 0
-217 -219 0
-218 -219 0
220 221 222 0
-220 -221 0
-220 -222 0
-221 -222 0
223 224 225 0
-223 -224 0
-223 -225 0
-224 -225 0
226 227 228 0
-226 -227 0
-226 -228 0
-227 -228 0
229 230 231 0
-229 -230 0
-229 -231 0
-230 -231 0
232 233 234 0
-232 -233 0
-232 -234 0
-233 -234 0
235 236 237 0
-235 -236 0
-235 -237 0
-236 -237 0
238 239 240 0
-238 -239 0
-238 -240 0
-239 -240 0
241 242 243 0
-241 -242 0
-241 -243 0
-242 -243 0
244 245 246 0
-244 -245 0
-244 -246 0
-245 -246 0
247 248 249 0
-247 -248 0
-247 -249 0
-248 -249 0
250 251 252 0
-250 -251 0
-250 -252 0
-251 -252 0
253 254 255 0
-253 -254 0
-253 -255 0
-254 -255 0
256 257 258 0
-256 -257 0
-256 -258 0
-257 -258 0
259 260 261 0
-259 -260 0
-259 -261 0
-260 -261 0
262 263 264 0
-262 -263 0
-262 -264 0
-263 -264 0
265 266 267 0
-265 -266 0
-265 -267 0
-266 -267 0
268 269 270 0
-268 -269 0
-268 -270 0
-269 -270 0
271 272 273 0
-271 -272 0
-271 -273 0
-272 -273 0
274 275 276 0
-274 -275 0
-274 -276 0
-275 -276 0
277 278 279 0
-277 -278 0
-277 -279 0
-278 -279 0
280 281 282 0
-280 -281 0
-280 -282 0
-281 -282 0
283 284 285 0
-283 -284 0
-283 -285 0
-284 -285 0
286 287 288 0
-286 -287 0
-286 -288 0
-287 -288 0
289 290 291 0
-289 -290 0
-289 -291 0
-290 -291 0
292 293 294 0
-292 -293 0
-292 -294 0
-293 -294 0
295 296 297 0
-295 -296 0
-295 -297 0
-296 -297 0
298 299 300 0
-298 -299 0
-298 -300 0
-299 -300 0
301 302 303 0
-301 -302 0
-301 -303 0
-302 -303 0
304 305 306 0
-304 -305 0
-304 -306 0
-305 -306 0
307 308 309 0
-307 -308 0
-307 -309 0
-308 -309 0
310 311 312 0
-310 -311 0
-310 -312 0
-311 -312 0
313 314 315 0
-313 -314 0
-313 -315 0
-314 -315 0
316 317 318 0
-316 -317 0
-316 -318 0
-317 -318 0
319 320 321 0
-319 -320 0
-319 -321 0
-320 -321 0
322 323 324 0
-322 -323 0
-322 -324 0
-323 -324 0
325 326 327 0
-325 -326 0
-325 -327 0
-326 -327 0
328 329 330 0
-328 -329 0
-328 -330 0
-329 -330 0
331 332 333 0
-331 -332 0
-331 -333 0
-332 -333 0
334 335 336 0
-334 -335 0
-334 -336 0
-335 -336 0
337 338 339 0
-337 -338 0
-337 -339 0
-338 -339 0
340 341 342 0
-340 -341 0
-340 -342 0
-341 -342 0
343 344 345 0
-343 -344 0
-343 -345 0
-344 -345 0
346 347 348 0
-346 -347 0
-346 -348 0
-347 -348 0
349 350 351 0
-349 -350 0
-349 -351 0
-350 -351 0
352 353 354 0
-352 -353 0
-352 -354 0
-353 -354 0
355 356 357 0
-355 -356 0
-355 -357 0
-356 -357 0
358 359 360 0
-358 -359 0
-358 -360 0
-359 -360 0
361 362 363 0
-361 -362 0
-361 -363 0
-362 -363 0
364 365 366 0
-364 -365 0
-364 -366 0
-365 -366 0
367 368 369 0
-367 -368 0
-367 -369 0
-368 -369 0
370 371 372 0
-370 -371 0
-370 -372 0
-371 -372 0
373 374 375 0
-373 -374 0
-373 -375 0
-374 -375 0
376 377 378 0
-376 -377 0
-376 -378 0
-377 -378 0
379 380 381 0
-379 -380 0
-379 -381 0
-380 -381 0
382 383 384 0
-382 -383 0
-382 -384 0
-383 -384 0
385 386 387 0
-385 -386 0
-385 -387 0
-386 -387 0
388 389 390 0
-388 -389 0
-388 -390 0
-389 -390 0
391 392 393 0
-391 -392 0
-391 -393 0
-392 -393 0
394 395 396 0
-394 -395 0
-394 -396 0
-395 -396 0
397 398 399 0
-397 -398 0
-397 -399 0
-398 -399 0
400 401 402 0
-400 -401 0
-400 -402 0
-401 -402 0
403 404 405 0
-403 -404 0
-403 -405 0
-404 -405 0
406 407 408 0
-406 -407 0
-406 -408 0
-407 -408 0
409 410 411 0
-409 -410 0
-409 -411 0
-410 -411 0
412 413 414 0
-412 -413 0
-412 -414 0
-413 -414 0
415 416 417 0
-415 -416 0
-415 -417 0
-416 -417 0
418 419 420 0
-418 -419 0
-418 -420 0
-419 -420 0
421 422 423 0
-421 -422 0
-421 -423 0
-422 -423 0
424 425 426 0
-424 -425 0
-424 -426 0
-425 -426 0
427 428 429 0
-427 -428 0
-427 -429 0
-428 -429 0
430 431 432 0
-430 -431 0
-430 -432 0
-431 -432 0
433 434 435 0
-433 -434 0
-433 -435 0
-434 -435 0
436 437 438 0
-436 -437 0
-436 -438 0
-437 -438 0
439 440 441 0
-439 -440 0
-439 -441 0
-440 -441 0
442 443 444 0
-442 -443 0
-442 -444 0
-443 -444 0
445 446 447 0
-445 -446 0
-445 -447 0
-446 -447 0
448 449 450 0
-448 -449 0
-448 -450 0
-449 -450 0
451 452 453 0
-451 -452 0
-451 -453 0
-452 -453 0
454 455 456 0
-454 -455 0
-454 -456 0
-455 -456 0
457 458 459 0
-457 -458 0
-457 -459 0
-458 -459 0
460 461 462 0
-460 -461 0
-460 -462 0
-461 -462 0
463 464 465 0
-463 -464 0
-463 -465 0
-464 -465 0
466 467 468 0
-466 -467 0
-466 -468 0
-467 -468 0
469 470 471 0
-469 -470 0
-469 -471 0
-470 -471 0
472 473 474 0
-472 -473 0
-472 -474 0
-473 -474 0
475 476 477 0
-475 -476 0
-475 -477 0
-476 -477 0
478 479 480 0
-478 -479 0
-478 -480 0
-479 -480 0
481 482 483 0
-481 -482 0
-481 -483 0
-482 -483 0
484 485 486 0
-484 -485 0
-484 -486 0
-485 -486 0
487 488 489 0
-487 -488 0
-487 -489 0
-488 -489 0
490 491 492 0
-490 -491 0
-490 -492 0
-491 -492 0
493 494 495 0
-493 -494 0
-493 -495 0
-494 -495 0
496 497 498 0
-496 -497 0
-496 -498 0
-497 -498 0
499 500 501 0
-499 -500 0
-499 -501 0
-500 -501 0
502 503 504 0
-502 -503 0
-502 -504 0
-503 -504 0
505 506 507 0
-505 -506 0
-505 -507 0
-506 -507 0
508 509 510 0
-508 -509 0
-508 -510 0
-509 -510 0
511 512 513 0
-511 -512 0
-511 -513 0
-512 -513 0
514 515 516 0
-514 -515 0
-514 -516 0
-515 -516 0
517 518 519 0
-517 -518 0
-517 -519 0
-518 -519 0
520 521 522 0
-520 -521 0
-520 -522 0
-521 -522 0
523 524 525 0
-523 -524 0
-523 -525 0
-524 -525 0
526 527 528 0
-526 -527 0
-526 -528 0
-527 -528 0
529 530 531 0
-529 -530 0
-529 -531 0
-530 -531 0
532 533 534 0
-532 -533 0
-532 -534 0
-533 -534 0
535 536 537 0
-535 -536 0
-535 -537 0
-536 -537 0
538 539 540 0
-538 -539 0
-538 -540 0
-539 -540 0
541 542 543 0
-541 -542 0
-541 -543 0
-542 -543 0
544 545 546 0
-544 -545 0
-544 -546 0
-545 -546 0
547 548 549 0
-547 -548 0
-547 -549 0
-548 -549 0
550 551 552 0
-550 -551 0
-550 -552 0
-551 -552 0
553 554 555 0
-553 -554 0
-553 -555 0
-554 -555 0
556 557 558 0
-556 -557 0
-556 -558 0
-557 -558 0
559 560 561 0
-559 -560 0
-559 -561 0
-560 -561 0
562 563 564 0
-562 -563 0
-562 -564 0
-563 -564 0
565 566 567 0
-565 -566 0
-565 -567 0
-566 -567 0
568 569 570 0
-568 -569 0
-568 -570 0
-569 -570 0
571 572 573 0
-571 -572 0
-571 -573 0
-572 -573 0
574 575 576 0
-574 -575 0
-574 -576 0
-575 -576 0
577 578 579 0
-577 -578 0
-577 -579 0
-578 -579 0
580 581 582 0
-580 -581 0
-580 -582 0
-581 -582 0
583 584 585 0
-583 -584 0
-583 -585 0
-584 -585 0
586 587 588 0
-586 -587 0
-586 -588 0
-587 -588 0
589 590 591 0
-589 -590 0
-589 -591 0
-590 -591 0
592 593 594 0
-592 -593 0
-592 -594 0
-593 -594 0
595 596 597 0
-595 -596 0
-595 -597 0
-596 -597 0
598 599 600 0
-598 -599 0
-598 -600 0
-599 -600 0
601 602 603 0
-601 -602 0
-601 -603 0
-602 -603 0
604 605 606 0
-604 -605 0
-604 -606 0
-605 -606 0
607 608 609 0
-607 -608 0
-607 -609 0
-608 -609 0
610 611 612 0
-610 -611 0
-610 -612 0
-611 -612 0
613 614 615 0
-613 -614 0
-613 -615 0
-614 -615 0
616 617 618 0
-616 -617 0
-616 -618 0
-617 -618 0
619 620 621 0
-619 -620 0
-619 -621 0
-620 -621 0
622 623 624 0
-622 -623 0
-622 -624 0
-623 -624 0
625 626 627 0
-625 -626 0
-625 -627 0
-626 -627 0
628 629 630 0
-628 -629 0
-628 -630 0
-629 -630 0
631 632 633 0
-631 -632 0
-631 -633 0
-632 -633 0
634 635 636 0
-634 -635 0
-634 -636 0
-635 -636 0
637 638 639 0
-637 -638 0
-637 -639 0
-638 -639 0
640 641 642 0
-640 -641 0
-640 -642 0
-641 -642 0
643 644 645 0
-643 -644 0
-643 -645 0
-644 -645 0
646 647 648 0
-646 -647 0
-646 -648 0
-647 -648 0
649 650 651 0
-649 -650 0
-649 -651 0
-650 -651 0
652 653 654 0
-652 -653 0
-652 -654 0
-653 -654 0
655 656 657 0
-655 -656 0
-655 -657 0
-656 -657 0
658 659 660 0
-658 -659 0
-658 -660 0
-659 -660 0
661 662 663 0
-661 -662 0
-661 -663 0
-662 -663 0
664 665 666 0
-664 -665 0
-664 -666 0
-665 -666 0
667 668 669 0
-667 -668 0
-667 -669 0
-668 -669 0
670 671 672 0
-670 -671 0
-670 -672 0
-671 -672 0
673 674 675 0
-673 -674 0
-673 -675 0
-674 -675 0
676 677 678 0
-676 -677 0
-676 -678 0
-677 -678 0
679 680 681 0
-679 -680 0
-679 -681 0
-680 -681 0
682 683 684 0
-682 -683 0
-682 -684 0
-683 -684 0
685 686 687 0
-685 -686 0
-685 -687 0
-686 -687 0
688 689 690 0
-688 -689 0
-688 -690 0
-689 -690 0
691 692 693 0
-691 -692 0
-691 -693 0
-692 -693 0
694 695 696 0
-694 -695 0
-694 -696 0
-695 -696 0
697 698 699 0
-697 -698 0
-697 -699 0
-698 -699 0
700 701 702 0
-700 -701 0
-700 -702 0
-701 -702 0
703 704 705 0
-703 -704 0
-703 -705 0
-704 -705 0
706 707 708 0
-706 -707 0
-706 -708 0
-707 -708 0
709 710 711 0
-709 -710 0
-709 -711 0
-710 -711 0
712 713 714 0
-712 -713 0
-712 -714 0
-713 -714 0
715 716 717 0
-715 -716 0
-715 -717 0
-716 -717 0
718 719 720 0
-718 -719 0
-718 -720 0
-719 -720 0
721 722 723 0
-721 -722 0
-721 -723 0
-722 -723 0
724 725 726 0
-724 -725 0
-724 -726 0
-725 -726 0
727 728 729 0
-727 -728 0
-727 -729 0
-728 -729 0
730 731 732 0
-730 -731 0
-730 -732 0
-731 -732 0
733 734 735 0
-733 -734 0
-733 -735 0
-734 -735 0
736 737 738 0
-736 -737 0
-736 -738 0
-737 -738 0
739 740 741 0
-739 -740 0
-739 -741 0
-740 -741 0
742 743 744 0
-742 -743 0
-742 -744 0
-743 -744 0
745 746 747 0
-745 -746 0
-745 -747 0
-746 -747 0
748 749 750 0
-748 -749 0
-748 -750 0
-749 -750 0
751 752 753 0
-751 -752 0
-751 -753 0
-752 -753 0
754 755 756 0
-754 -755 0
-754 -756 0
-755 -756 0
757 758 759 0
-757 -758 0
-757 -759 0
-758 -759 0
760 761 762 0
-760 -761 0
-760 -762 0
-761 -762 0
763 764 765 0
-763 -764 0
-763 -765 0
-764 -765 0
766 767 768 0
-766 -767 0
-766 -768 0
-767 -768 0
769 770 771 0
-769 -770 0
-769 -771 0
-770 -771 0
772 773 774 0
-772 -773 0
-772 -774 0
-773 -774 0
775 776 777 0
-775 -776 0
-775 -777 0
-776 -777 0
778 779 780 0
-778 -779 0
-778 -780 0
-779 -780 0
781 782 783 0
-781 -782 0
-781 -783 0
-782 -783 0
784 785 786 0
-784 -785 0
-784 -786 0
-785 -786 0
787 788 789 0
-787 -788 0
-787 -789 0
-788 -789 0
790 791 792 0
-790 -791 0
-790 -792 0
-791 -792 0
793 794 795 0
-793 -794 0
-793 -795 0
-794 -795 0
796 797 798 0
-796 -797 0
-796 -798 0
-797 -798 0
799 800 801 0
-799 -800 0
-799 -801 0
-800 -801 0
802 803 804 0
-802 -803 0
-802 -804 0
-803 -804 0
805 806 807 0
-805 -806 0
-805 -807 0
-806 -807 0
808 809 810 0
-808 -809 0
-808 -810 0
-809 -810 0
811 812 813 0
-811 -812 0
-811 -813 0
-812 -813 0
814 815 816 0
-814 -815 0
-814 -816 0
-815 -816 0
817 818 819 0
-817 -818 0
-817 -819 0
-818 -819 0
820 821 822 0
-820 -821 0
-820 -822 0
-821 -822 0
823 824 825 0
-823 -824 0
-823 -825 0
-824 -825 0
826 827 828 0
-826 -827 0
-826 -828 0
-827 -828 0
829 830 831 0
-829 -830 0
-829 -831 0
-830 -831 0
832 833 834 0
-832 -833 0
-832 -834 0
-833 -834 0
835 836 837 0
-835 -836 0
-835 -837 0
-836 -837 0
838 839 840 0
-838 -839 0
-838 -840 0
-839 -840 0
841 842 843 0
-841 -842 0
-841 -843 0
-842 -843 0
844 845 846 0
-844 -845 0
-844 -846 0
-845 -846 0
847 848 849 0
-847 -848 0
-847 -849 0
-848 -849 0
850 851 852 0
-850 -851 0
-850 -852 0
-851 -852 0
853 854 855 0
-853 -854 0
-853 -855 0
-854 -855 0
856 857 858 0
-856 -857 0
-856 -858 0
-857 -858 0
859 860 861 0
-859 -860 0
-859 -861 0
-860 -861 0
862 863 864 0
-862 -863 0
-862 -864 0
-863 -864 0
865 866 867 0
-865 -866 0
-865 -867 0
-866 -867 0
868 869 870 0
-868 -869 0
-868 -870 0
-869 -870 0
871 872 873 0
-871 -872 0
-871 -873 0
-872 -873 0
874 875 876 0
-874 -875 0
-874 -876 0
-875 -876 0
877 878 879 0
-877 -878 0
-877 -879 0
-878 -879 0
880 881 882 0
-880 -881 0
-880 -882 0
-881 -882 0
883 884 885 0
-883 -884 0
-883 -885 0
-884 -885 0
886 887 888 0
-886 -887 0
-886 -888 0
-887 -888 0
889 890 891 0
-889 -890 0
-889 -891 0
-890 -891 0
892 893 894 0
-892 -893 0
-892 -894 0
-893 -894 0
895 896 897 0
-895 -896 0
-895 -897 0
-896 -897 0
898 899 900 0
-898 -899 0
-898 -900 0
-899 -900 0
901 902 903 0
-901 -902 0
-901 -903 0
-902 -903 0
904 905 906 0
-904 -905 0
-904 -906 0
-905 -906 0
907 908 909 0
-907 -908 0
-907 -909 0
-908 -909 0
910 911 912 0
-910 -911 0
-910 -912 0
-911 -912 0
913 914 915 0
-913 -914 0
-913 -915 0
-914 -915 0
916 917 918 0
-916 -917 0
-916 -918 0
-917 -918 0
919 920 921 0
-919 -920 0
-919 -921 0
-920 -921 0
922 923 924 0
-922 -923 0
-922 -924 0
-923 -924 0
925 926 927 0
-925 -926 0
-925 -927 0
-926 -927 0
928 929 930 0
-928 -929 0
-928 -930 0
-929 -930 0
931 932 933 0
-931 -932 0
-931 -933 0
-932 -933 0
934 935 936 0
-934 -935 0
-934 -936 0
-935 -936 0
937 938 939 0
-937 -938 0
-937 -939 0
-938 -939 0
940 941 942 0
-940 -941 0
-940 -942 0
-941 -942 0
943 944 945 0
-943 -944 0
-943 -945 0
-944 -945 0
946 947 948 0
-946 -947 0
-946 -948 0
-947 -948 0
949 950 951 0
-949 -950 0
-949 -951 0
-950 -951 0
952 953 954 0
-952 -953 0
-952 -954 0
-953 -954 0
955 956 957 0
-955 -956 0
-955 -957 0
-956 -957 0
958 959 960 0
-958 -959 0
-958 -960 0
-959 -960 0
961 962 963 0
-961 -962 0
-961 -963 0
-962 -963 0
964 965 966 0
-964 -965 0
-964 -966 0
-965 -966 0
967 968 969 0
-967 -968 0
-967 -969 0
-968 -969 0
970 971 972 0
-970 -971 0
-970 -972 0
-971 -972 0
973 974 975 0
-973 -974 0
-973 -975 0
-974 -975 0
976 977 978 0
-976 -977 0
-976 -978 0
-977 -978 0
979 980 981 0
-979 -980 0
-979 -981 0
-980 -981 0
982 983 984 0
-982 -983 0
-982 -984 0
-983 -984 0
985 986 987 0
-985 -986 0
-985 -987 0
-986 -987 0
988 989 990 0
-988 -989 0
-988 -990 0
-989 -990 0
991 992 993 0
-991 -992 0
-991 -993 0
-992 -993 0
994 995 996 0
-994 -995 0
-994 -996 0
-995 -996 0
997 998 999 0
-997 -998 0
-997 -999 0
-998 -999 0
1000 1001 1002 0
-1000 -1001 0
-1000 -1002 0
-1001 -1002 0
1003 1004 1005 0
-1003 -1004 0
-1003 -1005 0
-1004 -1005 0
1006 1007 1008 0
-1006 -1007 0
-1006 -1008 0
-1007 -1008 0
1009 1010 1011 0
-1009 -1010 0
-1009 -1011 0
-1010 -1011 0
1012 1013 1014 0
-1012 -1013 0
-1012 -1014 0
-1013 -1014 0
1015 1016 1017 0
-1015 -1016 0
-1015 -1017 0
-1016 -1017 0
1018 1019 1020 0
-1018 -1019 0
-1018 -1020 0
-1019 -1020 0
1021 1022 1023 0
-1021 -1022 0
-1021 -1023 0
-1022 -1023 0
1024 1025 1026 0
-1024 -1025 0
-1024 -1026 0
-1025 -1026 0
1027 1028 1029 0
-1027 -1028 0
-1027 -1029 0
-1028 -1029 0
-19 -4 -1 0
-20 -5 -2 0
-21 -6 -3 0
-19 -7 -4 0
-20 -8 -5 0
-21 -9 -6 0
-19 -10 -7 0
-20 -11 -8 0
-21 -12 -9 0
-19 -13 -10 0
-20 -14 -11 0
-21 -15 -12 0
-19 -16 -13 0
-20 -17 -14 0
-21 -18 -15 0
-19 -16 0
-20 -17 0
-21 -18 0
-22 -19 0
-23 -20 0
-24 -21 0
-25 -22 -19 0
-26 -23 -20 0
-27 -24 -21 0
-28 -25 -19 0
-29 -26 -20 0
-30 -27 -21 0
-31 -28 -19 0
-32 -29 -20 0
-33 -30 -21 0
-34 -31 -19 0
-35 -32 -20 0
-36 -33 -21 0
-37 -34 -19 0
-38 -35 -20 0
-39 -36 -21 0
-40 -37 -19 0
-41 -38 -20 0
-42 -39 -21 0
-43 -40 -19 0
-44 -41 -20 0
-45 -42 -21 0
-46 -43 -19 0
-47 -44 -20 0
-48 -45 -21 0
-49 -46 -19 0
-50 -47 -20 0
-51 -48 -21 0
-52 -49 -19 0
-53 -50 -20 0
-54 -51 -21 0
-55 -52 -19 0
-56 -53 -20 0
-57 -54 -21 0
-58 -55 -19 0
-59 -56 -20 0
-60 -57 -21 0
-61 -58 -19 0
-62 -59 -20 0
-63 -60 -21 0
-64 -61 -19 0
-65 -62 -20 0
-66 -63 -21 0
-67 -64 -19 0
-68 -65 -20 0
-69 -66 -21 0
-70 -67 -19 0
-71 -68 -20 0
-72 -69 -21 0
-73 -70 -19 0
-74 -71 -20 0
-75 -72 -21 0
-76 -73 -19 0
-77 -74 -20 0
-78 -75 -21 0
-79 -76 -19 0
-80 -77 -20 0
-81 -78 -21 0
-82 -79 -19 0
-83 -80 -20 0
-84 -81 -21 0
-85 -82 -19 0
-86 -83 -20 0
-87 -84 -21 0
-88 -85 -19 0
-89 -86 -20 0
-90 -87 -21 0
-91 -88 -19 0
-92 -89 -20 0
-93 -90 -21 0
-94 -91 -19 0
-95 -92 -20 0
-96 -93 -21 0
-97 -94 -19 0
-98 -95 -20 0
-99 -96 -21 0
-100 -97 -19 0
-101 -98 -20 0
-102 -99 -21 0
-103 -100 -19 0
-104 -101 -20 0
-105 -102 -21 0
-106 -103 -19 0
-107 -104 -20 0
-108 -105 -21 0
-109 -106 -19 0
-110 -107 -20 0
-111 -108 -21 0
-112 -109 -19 0
-113 -110 -20 0
-114 -111 -21 0
-115 -112 -19 0
-116 -113 -20 0
-117 -114 -21 0
-118 -115 -19 0
-119 -116 -20 0
-120 -117 -21 0
-121 -118 -19 0
-122 -119 -20 0
-123 -120 -21 0
-124 -121 -19 0
-125 -122 -20 0
-126 -123 -21 0
-127 -124 -19 0
-128 -125 -20 0
-129 -126 -21 0
-130 -127 -19 0
-131 -128 -20 0
-132 -129 -21 0
-133 -130 -19 0
-134 -131 -20 0
-135 -132 -21 0
-136 -133 -19 0
-137 -134 -20 0
-138 -135 -21 0
-139 -136 -19 0
-140 -137 -20 0
-141 -138 -21 0
-142 -139 -19 0
-143 -140 -20 0
-144 -141 -21 0
-145 -142 -19 0
-146 -143 -20 0
-147 -144 -21 0
-148 -145 -19 0
-149 -146 -20 0
-150 -147 -21 0
-151 -148 -19 0
-152 -149 -20 0
-153 -150 -21 0
-154 -151 -19 0
-155 -152 -20 0
-156 -153 -21 0
-157 -154 -19 0
-158 -155 -20 0
-159 -156 -21 0
-160 -157 -19 0
-161 -158 -20 0
-162 -159 -21 0
-163 -160 -19 0
-164 -161 -20 0
-165 -162 -21 0
-166 -163 -19 0
-167 -164 -20 0
-168 -165 -21 0
-169 -166 -19 0
-170 -167 -20 0
-171 -168 -21 0
-172 -169 -19 0
-173 -170 -20 0
-174 -171 -21 0
-175 -172 -19 0
-176 -173 -20 0
-177 -174 -21 0
-178 -175 -19 0
-179 -176 -20 0
-180 -177 -21 0
-181 -178 -19 0
-182 -179 -20 0
-183 -180 -21 0
-184 -181 -19 0
-185 -182 -20 0
-186 -183 -21 0
-187 -184 -19 0
-188 -185 -20 0
-189 -186 -21 0
-190 -187 -19 0
-191 -188 -20 0
-192 -189 -21 0
-193 -190 -19 0
-194 -191 -20 0
-195 -192 -21 0
-196 -193 -19 0
-197 -194 -20 0
-198 -195 -21 0
-199 -196 -19 0
-200 -197 -20 0
-201 -198 -21 0
-202 -199 -19 0
-203 -200 -20 0
-204 -201 -21 0
-205 -202 -19 0
-206 -203 -20 0
-207 -204 -21 0
-208 -205 -19 0
-209 -206 -20 0
-210 -207 -21 0
-211 -208 -19 0
-212 -209 -20 0
-213 -210 -21 0
-214 -211 -19 0
-215 -212 -20 0
-216 -213 -21 0
-217 -214 -19 0
-218 -215 -20 0
-219 -216 -21 0
-220 -217 -19 0
-221 -218 -20 0
-222 -219 -21 0
-223 -220 -19 0
-224 -221 -20 0
-225 -222 -21 0
-226 -223 -19 0
-227 -224 -20 0
-228 -225 -21 0
-229 -226 -19 0
-230 -227 -20 0
-231 -228 -21 0
-232 -229 -19 0
-233 -230 -20 0
-234 -231 -21 0
-235 -232 -19 0
-236 -233 -20 0
-237 -234 -21 0
-238 -235 -19 0
-239 -236 -20 0
-240 -237 -21 0
-241 -238 -19 0
-242 -239 -20 0
-243 -240 -21 0
-244 -241 -19 0
-245 -242 -20 0
-246 -243 -21 0
-247 -244 -19 0
-248 -245 -20 0
-249 -246 -21 0
-250 -247 -19 0
-251 -248 -20 0
-252 -249 -21 0
-253 -250 -19 0
-254 -251 -20 0
-255 -252 -21 0
-256 -253 -19 0
-257 -254 -20 0
-258 -255 -21 0
-259 -256 -19 0
-260 -257 -20 0
-261 -258 -21 0
-262 -259 -19 0
-263 -260 -20 0
-264 -261 -21 0
-265 -262 -19 0
-266 -263 -20 0
-267 -264 -21 0
-268 -265 -19 0
-269 -266 -20 0
-270 -267 -21 0
-271 -268 -19 0
-272 -269 -20 0
-273 -270 -21 0
-274 -271 -19 0
-275 -272 -20 0
-276 -273 -21 0
-277 -274 -19 0
-278 -275 -20 0
-279 -276 -21 0
-280 -277 -19 0
-281 -278 -20 0
-282 -279 -21 0
-283 -280 -19 0
-284 -281 -20 0
-285 -282 -21 0
-286 -283 -19 0
-287 -284 -20 0
-288 -285 -21 0
-289 -286 -19 0
-290 -287 -20 0
-291 -288 -21 0
-292 -289 -19 0
-293 -290 -20 0
-294 -291 -21 0
-295 -292 -19 0
-296 -293 -20 0
-297 -294 -21 0
-298 -295 -19 0
-299 -296 -20 0
-300 -297 -21 0
-301 -298 -19 0
-302 -299 -20 0
-303 -300 -21 0
-304 -301 -19 0
-305 -302 -20 0
-306 -303 -21 0
-307 -304 -19 0
-308 -305 -20 0
-309 -306 -21 0
-310 -307 -19 0
-311 -308 -20 0
-312 -309 -21 0
-313 -310 -19 0
-314 -311 -20 0
-315 -312 -21 0
-316 -313 -19 0
-317 -314 -20 0
-318 -315 -21 0
-319 -316 -19 0
-320 -317 -20 0
-321 -318 -21 0
-322 -319 -19 0
-323 -320 -20 0
-324 -321 -21 0
-325 -322 -19 0
-326 -323 -20 0
-327 -324 -21 0
-328 -325 -19 0
-329 -326 -20 0
-330 -327 -21 0
-331 -328 -19 0
-332 -329 -20 0
-333 -330 -21 0
-334 -331 -19 0
-335 -332 -20 0
-336 -333 -21 0
-337 -334 -19 0
-338 -335 -20 0
-339 -336 -21 0
-340 -337 -19 0
-341 -338 -20 0
-342 -339 -21 0
-343 -340 -19 0
-344 -341 -20 0
-345 -342 -21 0
-346 -343 -19 0
-347 -344 -20 0
-348 -345 -21 0
-349 -346 -19 0
-350 -347 -20 0
-351 -348 -21 0
-352 -349 -19 0
-353 -350 -20 0
-354 -351 -21 0
-355 -352 -19 0
-356 -353 -20 0
-357 -354 -21 0
-358 -355 -19 0
-359 -356 -20 0
-360 -357 -21 0
-361 -358 -19 0
-362 -359 -20 0
-363 -360 -21 0
-364 -361 -19 0
-365 -362 -20 0
-366 -363 -21 0
-367 -364 -19 0
-368 -365 -20 0
-369 -366 -21 0
-370 -367 -19 0
-371 -368 -20 0
-372 -369 -21 0
-373 -370 -19 0
-374 -371 -20 0
-375 -372 -21 0
-376 -373 -19 0
-377 -374 -20 0
-378 -375 -21 0
-379 -376 -19 0
-380 -377 -20 0
-381 -378 -21 0
-382 -379 -19 0
-383 -380 -20 0
-384 -381 -21 0
-385 -382 -19 0
-386 -383 -20 0
-387 -384 -21 0
-388 -385 -19 0
-389 -386 -20 0
-390 -387 -21 0
-391 -388 -19 0
-392 -389 -20 0
-393 -390 -21 0
-394 -391 -19 0
-395 -392 -20 0
-396 -393 -21 0
-397 -394 -19 0
-398 -395 -20 0
-399 -396 -21 0
-400 -397 -19 0
-401 -398 -20 0
-402 -399 -21 0
-403 -400 -19 0
-404 -401 -20 0
-405 -402 -21 0
-406 -403 -19 0
-407 -404 -20 0
-408 -405 -21 0
-409 -406 -19 0
-410 -407 -20 0
-411 -408 -21 0
-412 -409 -19 0
-413 -410 -20 0
-414 -411 -21 0
-415 -412 -19 0
-416 -413 -20 0
-417 -414 -21 0
-418 -415 -19 0
-419 -416 -20 0
-420 -417 -21 0
-421 -418 -19 0
-422 -419 -20 0
-423 -420 -21 0
-424 -421 -19 0
-425 -422 -20 0
-426 -423 -21 0
-427 -424 -19 0
-428 -425 -20 0
-429 -426 -21 0
-430 -427 -19 0
-431 -428 -20 0
-432 -429 -21 0
-433 -430 -19 0
-434 -431 -20 0
-435 -432 -21 0
-436 -433 -19 0
-437 -434 -20 0
-438 -435 -21 0
-439 -436 -19 0
-440 -437 -20 0
-441 -438 -21 0
-442 -439 -19 0
-443 -440 -20 0
-444 -441 -21 0
-445 -442 -19 0
-446 -443 -20 0
-447 -444 -21 0
-448 -445 -19 0
-449 -446 -20 0
-450 -447 -21 0
-451 -448 -19 0
-452 -449 -20 0
-453 -450 -21 0
-454 -451 -19 0
-455 -452 -20 0
-456 -453 -21 0
-457 -454 -19 0
-458 -455 -20 0
-459 -456 -21 0
-460 -457 -19 0
-461 -458 -20 0
-462 -459 -21 0
-463 -460 -19 0
-464 -461 -20 0
-465 -462 -21 0
-466 -463 -19 0
-467 -464 -20 0
-468 -465 -21 0
-469 -466 -19 0
-470 -467 -20 0
-471 -468 -21 0
-472 -469 -19 0
-473 -470 -20 0
-474 -471 -21 0
-475 -472 -19 0
-476 -473 -20 0
-477 -474 -21 0
-478 -475 -19 0
-479 -476 -20 0
-480 -477 -21 0
-481 -478 -19 0
-482 -479 -20 0
-483 -480 -21 0
-484 -481 -19 0
-485 -482 -20 0
-486 -483 -21 0
-487 -484 -19 0
-488 -485 -20 0
-489 -486 -21 0
-490 -487 -19 0
-491 -488 -20 0
-492 -489 -21 0
-493 -490 -19 0
-494 -491 -20 0
-495 -492 -21 0
-496 -493 -19 0
-497 -494 -20 0
-498 -495 -21 0
-499 -496 -19 0
-500 -497 -20 0
-501 -498 -21 0
-502 -499 -19 0
-503 -500 -20 0
-504 -501 -21 0
-505 -502 -19 0
-506 -503 -20 0
-507 -504 -21 0
-508 -505 -19 0
-509 -506 -20 0
-510 -507 -21 0
-511 -508 -19 0
-512 -509 -20 0
-513 -510 -21 0
-514 -511 -19 0
-515 -512 -20 0
-516 -513 -21 0
-517 -514 -19 0
-518 -515 -20 0
-519 -516 -21 0
-520 -517 -19 0
-521 -518 -20 0
-522 -519 -21 0
-523 -520 -19 0
-524 -521 -20 0
-525 -522 -21 0
-526 -523 -19 0
-527 -524 -20 0
-528 -525 -21 0
-529 -526 -19 0
-530 -527 -20 0
-531 -528 -21 0
-532 -529 -19 0
-533 -530 -20 0
-534 -531 -21 0
-535 -532 -19 0
-536 -533 -20 0
-537 -534 -21 0
-538 -535 -19 0
-539 -536 -20 0
-540 -537 -21 0
-541 -538 -19 0
-542 -539 -20 0
-543 -540 -21 0
-544 -541 -19 0
-545 -542 -20 0
-546 -543 -21 0
-547 -544 -19 0
-548 -545 -20 0
-549 -546 -21 0
-550 -547 -19 0
-551 -548 -20 0
-552 -549 -21 0
-553 -550 -19 0
-554 -551 -20 0
-555 -552 -21 0
-556 -553 -19 0
-557 -554 -20 0
-558 -555 -21 0
-559 -556 -19 0
-560 -557 -20 0
-561 -558 -21 0
-562 -559 -19 0
-563 -560 -20 0
-564 -561 -21 0
-565 -562 -19 0
-566 -563 -20 0
-567 -564 -21 0
-568 -565 -19 0
-569 -566 -20 0
-570 -567 -21 0
-571 -568 -19 0
-572 -569 -20 0
-573 -570 -21 0
-574 -571 -19 0
-575 -572 -20 0
-576 -573 -21 0
-577 -574 -19 0
-578 -575 -20 0
-579 -576 -21 0
-580 -577 -19 0
-581 -578 -20 0
-582 -579 -21 0
-583 -580 -19 0
-584 -581 -20 0
-585 -582 -21 0
-586 -583 -19 0
-587 -584 -20 0
-588 -585 -21 0
-589 -586 -19 0
-590 -587 -20 0
-591 -588 -21 0
-592 -589 -19 0
-593 -590 -20 0
-594 -591 -21 0
-595 -592 -19 0
-596 -593 -20 0
-597 -594 -21 0
-598 -595 -19 0
-599 -596 -20 0
-600 -597 -21 0
-601 -598 -19 0
-602 -599 -20 0
-603 -600 -21 0
-604 -601 -19 0
-605 -602 -20 0
-606 -603 -21 0
-607 -604 -19 0
-608 -605 -20 0
-609 -606 -21 0
-610 -607 -19 0
-611 -608 -20 0
-612 -609 -21 0
-613 -610 -19 0
-614 -611 -20 0
-615 -612 -21 0
-616 -613 -19 0
-617 -614 -20 0
-618 -615 -21 0
-619 -616 -19 0
-620 -617 -20 0
-621 -618 -21 0
-622 -619 -19 0
-623 -620 -20 0
-624 -621 -21 0
-625 -622 -19 0
-626 -623 -20 0
-627 -624 -21 0
-628 -625 -19 0
-629 -626 -20 0
-630 -627 -21 0
-631 -628 -19 0
-632 -629 -20 0
-633 -630 -21 0
-634 -631 -19 0
-635 -632 -20 0
-636 -633 -21 0
-637 -634 -19 0
-638 -635 -20 0
-639 -636 -21 0
-640 -637 -19 0
-641 -638 -20 0
-642 -639 -21 0
-643 -640 -19 0
-644 -641 -20 0
-645 -642 -21 0
-646 -643 -19 0
-647 -644 -20 0
-648 -645 -21 0
-649 -646 -19 0
-650 -647 -20 0
-651 -648 -21 0
-652 -649 -19 0
-653 -650 -20 0
-654 -651 -21 0
-655 -652 -19 0
-656 -653 -20 0
-657 -654 -21 0
-658 -655 -19 0
-659 -656 -20 0
-660 -657 -21 0
-661 -658 -19 0
-662 -659 -20 0
-663 -660 -21 0
-664 -661 -19 0
-665 -662 -20 0
-666 -663 -21 0
-667 -664 -19 0
-668 -665 -20 0
-669 -666 -21 0
-670 -667 -19 0
-671 -668 -20 0
-672 -669 -21 0
-673 -670 -19 0
-674 -671 -20 0
-675 -672 -21 0
-676 -673 -19 0
-677 -674 -20 0
-678 -675 -21 0
-679 -676 -19 0
-680 -677 -20 0
-681 -678 -21 0
-682 -679 -19 0
-683 -680 -20 0
-684 -681 -21 0
-685 -682 -19 0
-686 -683 -20 0
-687 -684 -21 0
-688 -685 -19 0
-689 -686 -20 0
-690 -687 -21 0
-691 -688 -19 0
-692 -689 -20 0
-693 -690 -21 0
-694 -691 -19 0
-695 -692 -20 0
-696 -693 -21 0
-697 -694 -19 0
-698 -695 -20 0
-699 -696 -21 0
-700 -697 -19 0
-701 -698 -20 0
-702 -699 -21 0
-703 -700 -19 0
-704 -701 -20 0
-705 -702 -21 0
-706 -703 -19 0
-707 -704 -20 0
-708 -705 -21 0
-709 -706 -19 0
-710 -707 -20 0
-711 -708 -21 0
-712 -709 -19 0
-713 -710 -20 0
-714 -711 -21 0
-715 -712 -19 0
-716 -713 -20 0
-717 -714 -21 0
-718 -715 -19 0
-719 -716 -20 0
-720 -717 -21 0
-721 -718 -19 0
-722 -719 -20 0
-723 -720 -21 0
-724 -721 -19 0
-725 -722 -20 0
-726 -723 -21 0
-727 -724 -19 0
-728 -725 -20 0
-729 -726 -21 0
-730 -727 -19 0
-731 -728 -20 0
-732 -729 -21 0
-733 -730 -19 0
-734 -731 -20 0
-735 -732 -21 0
-736 -733 -19 0
-737 -734 -20 0
-738 -735 -21 0
-739 -736 -19 0
-740 -737 -20 0
-741 -738 -21 0
-742 -739 -19 0
-743 -740 -20 0
-744 -741 -21 0
-745 -742 -19 0
-746 -743 -20 0
-747 -744 -21 0
-748 -745 -19 0
-749 -746 -20 0
-750 -747 -21 0
-751 -748 -19 0
-752 -749 -20 0
-753 -750 -21 0
-754 -751 -19 0
-755 -752 -20 0
-756 -753 -21 0
-757 -754 -19 0
-758 -755 -20 0
-759 -756 -21 0
-760 -757 -19 0
-761 -758 -20 0
-762 -759 -21 0
-763 -760 -19 0
-764 -761 -20 0
-765 -762 -21 0
-766 -763 -19 0
-767 -764 -20 0
-768 -765 -21 0
-769 -766 -19 0
-770 -767 -20 0
-771 -768 -21 0
-772 -769 -19 0
-773 -770 -20 0
-774 -771 -21 0
-775 -772 -19 0
-776 -773 -20 0
-777 -774 -21 0
-778 -775 -19 0
-779 -776 -20 0
-780 -777 -21 0
-781 -778 -19 0
-782 -779 -20 0
-783 -780 -21 0
-784 -781 -19 0
-785 -782 -20 0
-786 -783 -21 0
-787 -784 -19 0
-788 -785 -20 0
-789 -786 -21 0
-790 -787 -19 0
-791 -788 -20 0
-792 -789 -21 0
-793 -790 -19 0
-794 -791 -20 0
-795 -792 -21 0
-796 -793 -19 0
-797 -794 -20 0
-798 -795 -21 0
-799 -796 -19 0
-800 -797 -20 0
-801 -798 -21 0
-802 -799 -19 0
-803 -800 -20 0
-804 -801 -21 0
-805 -802 -19 0
-806 -803 -20 0
-807 -804 -21 0
-808 -805 -19 0
-809 -806 -20 0
-810 -807 -21 0
-811 -808 -19 0
-812 -809 -20 0
-813 -810 -21 0
-814 -811 -19 0
-815 -812 -20 0
-816 -813 -21 0
-817 -814 -19 0
-818 -815 -20 0
-819 -816 -21 0
-820 -817 -19 0
-821 -818 -20 0
-822 -819 -21 0
-823 -820 -19 0
-824 -821 -20 0
-825 -822 -21 0
-826 -823 -19 0
-827 -824 -20 0
-828 -825 -21 0
-829 -826 -19 0
-830 -827 -20 0
-831 -828 -21 0
-832 -829 -19 0
-833 -830 -20 0
-834 -831 -21 0
-835 -832 -19 0
-836 -833 -20 0
-837 -834 -21 0
-838 -835 -19 0
-839 -836 -20 0
-840 -837 -21 0
-841 -838 -19 0
-842 -839 -20 0
-843 -840 -21 0
-844 -841 -19 0
-845 -842 -20 0
-846 -843 -21 0
-847 -844 -19 0
-848 -845 -20 0
-849 -846 -21 0
-850 -847 -19 0
-851 -848 -20 0
-852 -849 -21 0
-853 -850 -19 0
-854 -851 -20 0
-855 -852 -21 0
-856 -853 -19 0
-857 -854 -20 0
-858 -855 -21 0
-859 -856 -19 0
-860 -857 -20 0
-861 -858 -21 0
-862 -859 -19 0
-863 -860 -20 0
-864 -861 -21 0
-865 -862 -19 0
-866 -863 -20 0
-867 -864 -21 0
-868 -865 -19 0
-869 -866 -20 0
-870 -867 -21 0
-871 -868 -19 0
-872 -869 -20 0
-873 -870 -21 0
-874 -871 -19 0
-875 -872 -20 0
-876 -873 -21 0
-877 -874 -19 0
-878 -875 -20 0
-879 -876 -21 0
-880 -877 -19 0
-881 -878 -20 0
-882 -879 -21 0
-883 -880 -19 0
-884 -881 -20 0
-885 -882 -21 0
-886 -883 -19 0
-887 -884 -20 0
-888 -885 -21 0
-889 -886 -19 0
-890 -887 -20 0
-891 -888 -21 0
-892 -889 -19 0
-893 -890 -20 0
-894 -891 -21 0
-895 -892 -19 0
-896 -893 -20 0
-897 -894 -21 0
-898 -895 -19 0
-899 -896 -20 0
-900 -897 -21 0
-901 -898 -19 0
-902 -899 -20 0
-903 -900 -21 0
-904 -901 -19 0
-905 -902 -20 0
-906 -903 -21 0
-907 -904 -19 0
-908 -905 -20 0
-909 -906 -21 0
-910 -907 -19 0
-911 -908 -20 0
-912 -909 -21 0
-913 -910 -19 0
-914 -911 -20 0
-915 -912 -21 0
-916 -913 -19 0
-917 -914 -20 0
-918 -915 -21 0
-919 -916 -19 0
-920 -917 -20 0
-921 -918 -21 0
-922 -919 -19 0
-923 -920 -20 0
-924 -921 -21 0
-925 -922 -19 0
-926 -923 -20 0
-927 -924 -21 0
-928 -925 -19 0
-929 -926 -20 0
-930 -927 -21 0
-931 -928 -19 0
-932 -929 -20 0
-933 -930 -21 0
-934 -931 -19 0
-935 -932 -20 0
-936 -933 -21 0
-937 -934 -19 0
-938 -935 -20 0
-939 -936 -21 0
-940 -937 -19 0
-941 -938 -20 0
-942 -939 -21 0
-943 -940 -19 0
-944 -941 -20 0
-945 -942 -21 0
-946 -943 -19 0
-947 -944 -20 0
-948 -945 -21 0
-949 -946 -19 0
-950 -947 -20 0
-951 -948 -21 0
-952 -949 -19 0
-953 -950 -20 0
-954 -951 -21 0
-955 -952 -19 0
-956 -953 -20 0
-957 -954 -21 0
-958 -955 -19 0
-959 -956 -20 0
-960 -957 -21 0
-961 -958 -19 0
-962 -959 -20 0
-963 -960 -21 0
-964 -961 -19 0
-965 -962 -20 0
-966 -963 -21 0
-967 -964 -19 0
-968 -965 -20 0
-969 -966 -21 0
-970 -967 -19 0
-971 -968 -20 0
-972 -969 -21 0
-973 -970 -19 0
-974 -971 -20 0
-975 -972 -21 0
-976 -973 -19 0
-977 -974 -20 0
-978 -975 -21 0
-979 -976 -19 0
-980 -977 -20 0
-981 -978 -21 0
-982 -979 -19 0
-983 -980 -20 0
-984 -981 -21 0
-985 -982 -19 0
-986 -983 -20 0
-987 -984 -21 0
-988 -985 -19 0
-989 -986 -20 0
-990 -987 -21 0
-991 -988 -19 0
-992 -989 -20 0
-993 -990 -21 0
-994 -991 -19 0
-995 -992 -20 0
-996 -993 -21 0
-997 -994 -19 0
-998 -995 -20 0
-999 -996 -21 0
-1000 -997 -19 0
-1001 -998 -20 0
-1002 -999 -21 0
-1003 -1000 -19 0
-1004 -1001 -20 0
-1005 -1002 -21 0
-1006 -1003 -19 0
-1007 -1004 -20 0
-1008 -1005 -21 0
-1009 -1006 -19 0
-1010 -1007 -20 0
-1011 -1008 -21 0
-1012 -1009 -19 0
-1013 -1010 -20 0
-1014 -1011 -21 0
-1015 -1012 -19 0
-1016 -1013 -20 0
-1017 -1014 -21 0
-1018 -1015 -19 0
-1019 -1016 -20 0
-1020 -1017 -21 0
-1021 -1018 -19 0
-1022 -1019 -20 0
-1023 -1020 -21 0
-1024 -1021 -19 0
-1025 -1022 -20 0
-1026 -1023 -21 0
-1027 -1024 -19 0
-1028 -1025 -20 0
-1029 -1026 -21 0
-40 -7 -1 0
-41 -8 -2 0
-42 -9 -3 0
-40 -10 -4 0
-41 -11 -5 0
-42 -12 -6 0
-40 -13 -7 0
-41 -14 -8 0
-42 -15 -9 0
-40 -16 -10 0
-41 -17 -11 0
-42 -18 -12 0
-40 -19 -13 0
-41 -20 -14 0
-42 -21 -15 0
-40 -22 -16 0
-41 -23 -17 0
-42 -24 -18 0
-40 -25 -19 0
-41 -26 -20 0
-42 -27 -21 0
-40 -28 -22 0
-41 -29 -23 0
-42 -30 -24 0
-40 -31 -25 0
-41 -32 -26 0
-42 -33 -27 0
-40 -34 -28 0
-41 -35 -29 0
-42 -36 -30 0
-40 -37 -31 0
-41 -38 -32 0
-42 -39 -33 0
-40 -34 0
-41 -35 0
-42 -36 0
-43 -40 -37 0
-44 -41 -38 0
-45 -42 -39 0
-46 -40 0
-47 -41 0
-48 -42 0
-49 -43 -40 0
-50 -44 -41 0
-51 -45 -42 0
-52 -46 -40 0
-53 -47 -41 0
-54 -48 -42 0
-55 -49 -40 0
-56 -50 -41 0
-57 -51 -42 0
-58 -52 -40 0
-59 -53 -41 0
-60 -54 -42 0
-61 -55 -40 0
-62 -56 -41 0
-63 -57 -42 0
-64 -58 -40 0
-65 -59 -41 0
-66 -60 -42 0
-67 -61 -40 0
-68 -62 -41 0
-69 -63 -42 0
-70 -64 -40 0
-71 -65 -41 0
-72 -66 -42 0
-73 -67 -40 0
-74 -68 -41 0
-75 -69 -42 0
-76 -70 -40 0
-77 -71 -41 0
-78 -72 -42 0
-79 -73 -40 0
-80 -74 -41 0
-81 -75 -42 0
-82 -76 -40 0
-83 -77 -41 0
-84 -78 -42 0
-85 -79 -40 0
-86 -80 -41 0
-87 -81 -42 0
-88 -82 -40 0
-89 -83 -41 0
-90 -84 -42 0
-91 -85 -40 0
-92 -86 -41 0
-93 -87 -42 0
-94 -88 -40 0
-95 -89 -41 0
-96 -90 -42 0
-97 -91 -40 0
-98 -92 -41 0
-99 -93 -42 0
-100 -94 -40 0
-101 -95 -41 0
-102 -96 -42 0
-103 -97 -40 0
-104 -98 -41 0
-105 -99 -42 0
-106 -100 -40 0
-107 -101 -41 0
-108 -102 -42 0
-109 -103 -40 0
-110 -104 -41 0
-111 -105 -42 0
-112 -106 -40 0
-113 -107 -41 0
-114 -108 -42 0
-115 -109 -40 0
-116 -110 -41 0
-117 -111 -42 0
-118 -112 -40 0
-119 -113 -41 0
-120 -114 -42 0
-121 -115 -40 0
-122 -116 -41 0
-123 -117 -42 0
-124 -118 -40 0
-125 -119 -41 0
-126 -120 -42 0
-127 -121 -40 0
-128 -122 -41 0
-129 -123 -42 0
-130 -124 -40 0
-131 -125 -41 0
-132 -126 -42 0
-133 -127 -40 0
-134 -128 -41 0
-135 -129 -42 0
-136 -130 -40 0
-137 -131 -41 0
-138 -132 -42 0
-139 -133 -40 0
-140 -134 -41 0
-141 -135 -42 0
-142 -136 -40 0
-143 -137 -41 0
-144 -138 -42 0
-145 -139 -40 0
-146 -140 -41 0
-147 -141 -42 0
-148 -142 -40 0
-149 -143 -41 0
-150 -144 -42 0
-151 -145 -40 0
-152 -146 -41 0
-153 -147 -42 0
-154 -148 -40 0
-155 -149 -41 0
-156 -150 -42 0
-157 -151 -40 0
-158 -152 -41 0
-159 -153 -42 0
-160 -154 -40 0
-161 -155 -41 0
-162 -156 -42 0
-163 -157 -40 0
-164 -158 -41 0
-165 -159 -42 0
-166 -160 -40 0
-167 -161 -41 0
-168 -162 -42 0
-169 -163 -40 0
-170 -164 -41 0
-171 -165 -42 0
-172 -166 -40 0
-173 -167 -41 0
-174 -168 -42 0
-175 -169 -40 0
-176 -170 -41 0
-177 -171 -42 0
-178 -172 -40 0
-179 -173 -41 0
-180 -174 -42 0
-181 -175 -40 0
-182 -176 -41 0
-183 -177 -42 0
-184 -178 -40 0
-185 -179 -41 0
-186 -180 -42 0
-187 -181 -40 0
-188 -182 -41 0
-189 -183 -42 0
-190 -184 -40 0
-191 -185 -41 0
-192 -186 -42 0
-193 -187 -40 0
-194 -188 -41 0
-195 -189 -42 0
-196 -190 -40 0
-197 -191 -41 0
-198 -192 -42 0
-199 -193 -40 0
-200 -194 -41 0
-201 -195 -42 0
-202 -196 -40 0
-203 -197 -41 0
-204 -198 -42 0
-205 -199 -40 0
-206 -200 -41 0
-207 -201 -42 0
-208 -202 -40 0
-209 -203 -41 0
-210 -204 -42 0
-211 -205 -40 0
-212 -206 -41 0
-213 -207 -42 0
-214 -208 -40 0
-215 -209 -41 0
-216 -210 -42 0
-217 -211 -40 0
-218 -212 -41 0
-219 -213 -42 0
-220 -214 -40 0
-221 -215 -41 0
-222 -216 -42 0
-223 -217 -40 0
-224 -218 -41 0
-225 -219 -42 0
-226 -220 -40 0
-227 -221 -41 0
-228 -222 -42 0
-229 -223 -40 0
-230 -224 -41 0
-231 -225 -42 0
-232 -226 -40 0
-233 -227 -41 0
-234 -228 -42 0
-235 -229 -40 0
-236 -230 -41 0
-237 -231 -42 0
-238 -232 -40 0
-239 -233 -41 0
-240 -234 -42 0
-241 -235 -40 0
-242 -236 -41 0
-243 -237 -42 0
-244 -238 -40 0
-245 -239 -41 0
-246 -240 -42 0
-247 -241 -40 0
-248 -242 -41 0
-249 -243 -42 0
-250 -244 -40 0
-251 -245 -41 0
-252 -246 -42 0
-253 -247 -40 0
-254 -248 -41 0
-255 -249 -42 0
-256 -250 -40 0
-257 -251 -41 0
-258 -252 -42 0
-259 -253 -40 0
-260 -254 -41 0
-261 -255 -42 0
-262 -256 -40 0
-263 -257 -41 0
-264 -258 -42 0
-265 -259 -40 0
-266 -260 -41 0
-267 -261 -42 0
-268 -262 -40 0
-269 -263 -41 0
-270 -264 -42 0
-271 -265 -40 0
-272 -266 -41 0
-273 -267 -42 0
-274 -268 -40 0
-275 -269 -41 0
-276 -270 -42 0
-277 -271 -40 0
-278 -272 -41 0
-279 -273 -42 0
-280 -274 -40 0
-281 -275 -41 0
-282 -276 -42 0
-283 -277 -40 0
-284 -278 -41 0
-285 -279 -42 0
-286 -280 -40 0
-287 -281 -41 0
-288 -282 -42 0
-289 -283 -40 0
-290 -284 -41 0
-291 -285 -42 0
-292 -286 -40 0
-293 -287 -41 0
-294 -288 -42 0
-295 -289 -40 0
-296 -290 -41 0
-297 -291 -42 0
-298 -292 -40 0
-299 -293 -41 0
-300 -294 -42 0
-301 -295 -40 0
-302 -296 -41 0
-303 -297 -42 0
-304 -298 -40 0
-305 -299 -41 0
-306 -300 -42 0
-307 -301 -40 0
-308 -302 -41 0
-309 -303 -42 0
-310 -304 -40 0
-311 -305 -41 0
-312 -306 -42 0
-313 -307 -40 0
-314 -308 -41 0
-315 -309 -42 0
-316 -310 -40 0
-317 -311 -41 0
-318 -312 -42 0
-319 -313 -40 0
-320 -314 -41 0
-321 -315 -42 0
-322 -316 -40 0
-323 -317 -41 0
-324 -318 -42 0
-325 -319 -40 0
-326 -320 -41 0
-327 -321 -42 0
-328 -322 -40 0
-329 -323 -41 0
-330 -324 -42 0
-331 -325 -40 0
-332 -326 -41 0
-333 -327 -42 0
-334 -328 -40 0
-335 -329 -41 0
-336 -330 -42 0
-337 -331 -40 0
-338 -332 -41 0
-339 -333 -42 0
-340 -334 -40 0
-341 -335 -41 0
-342 -336 -42 0
-343 -337 -40 0
-344 -338 -41 0
-345 -339 -42 0
-346 -340 -40 0
-347 -341 -41 0
-348 -342 -42 0
-349 -343 -40 0
-350 -344 -41 0
-351 -345 -42 0
-352 -346 -40 0
-353 -347 -41 0
-354 -348 -42 0
-355 -349 -40 0
-356 -350 -41 0
-357 -351 -42 0
-358 -352 -40 0
-359 -353 -41 0
-360 -354 -42 0
-361 -355 -40 0
-362 -356 -41 0
-363 -357 -42 0
-364 -358 -40 0
-365 -359 -41 0
-366 -360 -42 0
-367 -361 -40 0
-368 -362 -41 0
-369 -363 -42 0
-370 -364 -40 0
-371 -365 -41 0
-372 -366 -42 0
-373 -367 -40 0
-374 -368 -41 0
-375 -369 -42 0
-376 -370 -40 0
-377 -371 -41 0
-378 -372 -42 0
-379 -373 -40 0
-380 -374 -41 0
-381 -375 -42 0
-382 -376 -40 0
-383 -377 -41 0
-384 -378 -42 0
-385 -379 -40 0
-386 -380 -41 0
-387 -381 -42 0
-388 -382 -40 0
-389 -383 -41 0
-390 -384 -42 0
-391 -385 -40 0
-392 -386 -41 0
-393 -387 -42 0
-394 -388 -40 0
-395 -389 -41 0
-396 -390 -42 0
-397 -391 -40 0
-398 -392 -41 0
-399 -393 -42 0
-400 -394 -40 0
-401 -395 -41 0
-402 -396 -42 0
-403 -397 -40 0
-404 -398 -41 0
-405 -399 -42 0
-406 -400 -40 0
-407 -401 -41 0
-408 -402 -42 0
-409 -403 -40 0
-410 -404 -41 0
-411 -405 -42 0
-412 -406 -40 0
-413 -407 -41 0
-414 -408 -42 0
-415 -409 -40 0
-416 -410 -41 0
-417 -411 -42 0
-418 -412 -40 0
-419 -413 -41 0
-420 -414 -42 0
-421 -415 -40 0
-422 -416 -41 0
-423 -417 -42 0
-424 -418 -40 0
-425 -419 -41 0
-426 -420 -42 0
-427 -421 -40 0
-428 -422 -41 0
-429 -423 -42 0
-430 -424 -40 0
-431 -425 -41 0
-432 -426 -42 0
-433 -427 -40 0
-434 -428 -41 0
-435 -429 -42 0
-436 -430 -40 0
-437 -431 -41 0
-438 -432 -42 0
-439 -433 -40 0
-440 -434 -41 0
-441 -435 -42 0
-442 -436 -40 0
-443 -437 -41 0
-444 -438 -42 0
-445 -439 -40 0
-446 -440 -41 0
-447 -441 -42 0
-448 -442 -40 0
-449 -443 -41 0
-450 -444 -42 0
-451 -445 -40 0
-452 -446 -41 0
-453 -447 -42 0
-454 -448 -40 0
-455 -449 -41 0
-456 -450 -42 0
-457 -451 -40 0
-458 -452 -41 0
-459 -453 -42 0
-460 -454 -40 0
-461 -455 -41 0
-462 -456 -42 0
-463 -457 -40 0
-464 -458 -41 0
-465 -459 -42 0
-466 -460 -40 0
-467 -461 -41 0
-468 -462 -42 0
-469 -463 -40 0
-470 -464 -41 0
-471 -465 -42 0
-472 -466 -40 0
-473 -467 -41 0
-474 -468 -42 0
-475 -469 -40 0
-476 -470 -41 0
-477 -471 -42 0
-478 -472 -40 0
-479 -473 -41 0
-480 -474 -42 0
-481 -475 -40 0
-482 -476 -41 0
-483 -477 -42 0
-484 -478 -40 0
-485 -479 -41 0
-486 -480 -42 0
-487 -481 -40 0
-488 -482 -41 0
-489 -483 -42 0
-490 -484 -40 0
-491 -485 -41 0
-492 -486 -42 0
-493 -487 -40 0
-494 -488 -41 0
-495 -489 -42 0
-496 -490 -40 0
-497 -491 -41 0
-498 -492 -42 0
-499 -493 -40 0
-500 -494 -41 0
-501 -495 -42 0
-502 -496 -40 0
-503 -497 -41 0
-504 -498 -42 0
-505 -499 -40 0
-506 -500 -41 0
-507 -501 -42 0
-508 -502 -40 0
-509 -503 -41 0
-510 -504 -42 0
-511 -505 -40 0
-512 -506 -41 0
-513 -507 -42 0
-514 -508 -40 0
-515 -509 -41 0
-516 -510 -42 0
-517 -511 -40 0
-518 -512 -41 0
-519 -513 -42 0
-520 -514 -40 0
-521 -515 -41 0
-522 -516 -42 0
-523 -517 -40 0
-524 -518 -41 0
-525 -519 -42 0
-526 -520 -40 0
-527 -521 -41 0
-528 -522 -42 0
-529 -523 -40 0
-530 -524 -41 0
-531 -525 -42 0
-532 -526 -40 0
-533 -527 -41 0
-534 -528 -42 0
-535 -529 -40 0
-536 -530 -41 0
-537 -531 -42 0
-538 -532 -40 0
-539 -533 -41 0
-540 -534 -42 0
-541 -535 -40 0
-542 -536 -41 0
-543 -537 -42 0
-544 -538 -40 0
-545 -539 -41 0
-546 -540 -42 0
-547 -541 -40 0
-548 -542 -41 0
-549 -543 -42 0
-550 -544 -40 0
-551 -545 -41 0
-552 -546 -42 0
-553 -547 -40 0
-554 -548 -41 0
-555 -549 -42 0
-556 -550 -40 0
-557 -551 -41 0
-558 -552 -42 0
-559 -553 -40 0
-560 -554 -41 0
-561 -555 -42 0
-562 -556 -40 0
-563 -557 -41 0
-564 -558 -42 0
-565 -559 -40 0
-566 -560 -41 0
-567 -561 -42 0
-568 -562 -40 0
-569 -563 -41 0
-570 -564 -42 0
-571 -565 -40 0
-572 -566 -41 0
-573 -567 -42 0
-574 -568 -40 0
-575 -569 -41 0
-576 -570 -42 0
-577 -571 -40 0
-578 -572 -41 0
-579 -573 -42 0
-580 -574 -40 0
-581 -575 -41 0
-582 -576 -42 0
-583 -577 -40 0
-584 -578 -41 0
-585 -579 -42 0
-586 -580 -40 0
-587 -581 -41 0
-588 -582 -42 0
-589 -583 -40 0
-590 -584 -41 0
-591 -585 -42 0
-592 -586 -40 0
-593 -587 -41 0
-594 -588 -42 0
-595 -589 -40 0
-596 -590 -41 0
-597 -591 -42 0
-598 -592 -40 0
-599 -593 -41 0
-600 -594 -42 0
-601 -595 -40 0
-602 -596 -41 0
-603 -597 -42 0
-604 -598 -40 0
-605 -599 -41 0
-606 -600 -42 0
-607 -601 -40 0
-608 -602 -41 0
-609 -603 -42 0
-610 -604 -40 0
-611 -605 -41 0
-612 -606 -42 0
-613 -607 -40 0
-614 -608 -41 0
-615 -609 -42 0
-616 -610 -40 0
-617 -611 -41 0
-618 -612 -42 0
-619 -613 -40 0
-620 -614 -41 0
-621 -615 -42 0
-622 -616 -40 0
-623 -617 -41 0
-624 -618 -42 0
-625 -619 -40 0
-626 -620 -41 0
-627 -621 -42 0
-628 -622 -40 0
-629 -623 -41 0
-630 -624 -42 0
-631 -625 -40 0
-632 -626 -41 0
-633 -627 -42 0
-634 -628 -40 0
-635 -629 -41 0
-636 -630 -42 0
-637 -631 -40 0
-638 -632 -41 0
-639 -633 -42 0
-640 -634 -40 0
-641 -635 -41 0
-642 -636 -42 0
-643 -637 -40 0
-644 -638 -41 0
-645 -639 -42 0
-646 -640 -40 0
-647 -641 -41 0
-648 -642 -42 0
-649 -643 -40 0
-650 -644 -41 0
-651 -645 -42 0
-652 -646 -40 0
-653 -647 -41 0
-654 -648 -42 0
-655 -649 -40 0
-656 -650 -41 0
-657 -651 -42 0
-658 -652 -40 0
-659 -653 -41 0
-660 -654 -42 0
-661 -655 -40 0
-662 -656 -41 0
-663 -657 -42 0
-664 -658 -40 0
-665 -659 -41 0
-666 -660 -42 0
-667 -661 -40 0
-668 -662 -41 0
-669 -663 -42 0
-670 -664 -40 0
-671 -665 -41 0
-672 -666 -42 0
-673 -667 -40 0
-674 -668 -41 0
-675 -669 -42 0
-676 -670 -40 0
-677 -671 -41 0
-678 -672 -42 0
-679 -673 -40 0
-680 -674 -41 0
-681 -675 -42 0
-682 -676 -40 0
-683 -677 -41 0
-684 -678 -42 0
-685 -679 -40 0
-686 -680 -41 0
-687 -681 -42 0
-688 -682 -40 0
-689 -683 -41 0
-690 -684 -42 0
-691 -685 -40 0
-692 -686 -41 0
-693 -687 -42 0
-694 -688 -40 0
-695 -689 -41 0
-696 -690 -42 0
-697 -691 -40 0
-698 -692 -41 0
-699 -693 -42 0
-700 -694 -40 0
-701 -695 -41 0
-702 -696 -42 0
-703 -697 -40 0
-704 -698 -41 0
-705 -699 -42 0
-706 -700 -40 0
-707 -701 -41 0
-708 -702 -42 0
-709 -703 -40 0
-710 -704 -41 0
-711 -705 -42 0
-712 -706 -40 0
-713 -707 -41 0
-714 -708 -42 0
-715 -709 -40 0
-716 -710 -41 0
-717 -711 -42 0
-718 -712 -40 0
-719 -713 -41 0
-720 -714 -42 0
-721 -715 -40 0
-722 -716 -41 0
-723 -717 -42 0
-724 -718 -40 0
-725 -719 -41 0
-726 -720 -42 0
-727 -721 -40 0
-728 -722 -41 0
-729 -723 -42 0
-730 -724 -40 0
-731 -725 -41 0
-732 -726 -42 0
-733 -727 -40 0
-734 -728 -41 0
-735 -729 -42 0
-736 -730 -40 0
-737 -731 -41 0
-738 -732 -42 0
-739 -733 -40 0
-740 -734 -41 0
-741 -735 -42 0
-742 -736 -40 0
-743 -737 -41 0
-744 -738 -42 0
-745 -739 -40 0
-746 -740 -41 0
-747 -741 -42 0
-748 -742 -40 0
-749 -743 -41 0
-750 -744 -42 0
-751 -745 -40 0
-752 -746 -41 0
-753 -747 -42 0
-754 -748 -40 0
-755 -749 -41 0
-756 -750 -42 0
-757 -751 -40 0
-758 -752 -41 0
-759 -753 -42 0
-760 -754 -40 0
-761 -755 -41 0
-762 -756 -42 0
-763 -757 -40 0
-764 -758 -41 0
-765 -759 -42 0
-766 -760 -40 0
-767 -761 -41 0
-768 -762 -42 0
-769 -763 -40 0
-770 -764 -41 0
-771 -765 -42 0
-772 -766 -40 0
-773 -767 -41 0
-774 -768 -42 0
-775 -769 -40 0
-776 -770 -41 0
-777 -771 -42 0
-778 -772 -40 0
-779 -773 -41 0
-780 -774 -42 0
-781 -775 -40 0
-782 -776 -41 0
-783 -777 -42 0
-784 -778 -40 0
-785 -779 -41 0
-786 -780 -42 0
-787 -781 -40 0
-788 -782 -41 0
-789 -783 -42 0
-790 -784 -40 0
-791 -785 -41 0
-792 -786 -42 0
-793 -787 -40 0
-794 -788 -41 0
-795 -789 -42 0
-796 -790 -40 0
-797 -791 -41 0
-798 -792 -42 0
-799 -793 -40 0
-800 -794 -41 0
-801 -795 -42 0
-802 -796 -40 0
-803 -797 -41 0
-804 -798 -42 0
-805 -799 -40 0
-806 -800 -41 0
-807 -801 -42 0
-808 -802 -40 0
-809 -803 -41 0
-810 -804 -42 0
-811 -805 -40 0
-812 -806 -41 0
-813 -807 -42 0
-814 -808 -40 0
-815 -809 -41 0
-816 -810 -42 0
-817 -811 -40 0
-818 -812 -41 0
-819 -813 -42 0
-820 -814 -40 0
-821 -815 -41 0
-822 -816 -42 0
-823 -817 -40 0
-824 -818 -41 0
-825 -819 -42 0
-826 -820 -40 0
-827 -821 -41 0
-828 -822 -42 0
-829 -823 -40 0
-830 -824 -41 0
-831 -825 -42 0
-832 -826 -40 0
-833 -827 -41 0
-834 -828 -42 0
-835 -829 -40 0
-836 -830 -41 0
-837 -831 -42 0
-838 -832 -40 0
-839 -833 -41 0
-840 -834 -42 0
-841 -835 -40 0
-842 -836 -41 0
-843 -837 -42 0
-844 -838 -40 0
-845 -839 -41 0
-846 -840 -42 0
-847 -841 -40 0
-848 -842 -41 0
-849 -843 -42 0
-850 -844 -40 0
-851 -845 -41 0
-852 -846 -42 0
-853 -847 -40 0
-854 -848 -41 0
-855 -849 -42 0
-856 -850 -40 0
-857 -851 -41 0
-858 -852 -42 0
-859 -853 -40 0
-860 -854 -41 0
-861 -855 -42 0
-862 -856 -40 0
-863 -857 -41 0
-864 -858 -42 0
-865 -859 -40 0
-866 -860 -41 0
-867 -861 -42 0
-868 -862 -40 0
-869 -863 -41 0
-870 -864 -42 0
-871 -865 -40 0
-872 -866 -41 0
-873 -867 -42 0
-874 -868 -40 0
-875 -869 -41 0
-876 -870 -42 0
-877 -871 -40 0
-878 -872 -41 0
-879 -873 -42 0
-880 -874 -40 0
-881 -875 -41 0
-882 -876 -42 0
-883 -877 -40 0
-884 -878 -41 0
-885 -879 -42 0
-886 -880 -40 0
-887 -881 -41 0
-888 -882 -42 0
-889 -883 -40 0
-890 -884 -41 0
-891 -885 -42 0
-892 -886 -40 0
-893 -887 -41 0
-894 -888 -42 0
-895 -889 -40 0
-896 -890 -41 0
-897 -891 -42 0
-898 -892 -40 0
-899 -893 -41 0
-900 -894 -42 0
-901 -895 -40 0
-902 -896 -41 0
-903 -897 -42 0
-904 -898 -40 0
-905 -899 -41 0
-906 -900 -42 0
-907 -901 -40 0
-908 -902 -41 0
-909 -903 -42 0
-910 -904 -40 0
-911 -905 -41 0
-912 -906 -42 0
-913 -907 -40 0
-914 -908 -41 0
-915 -909 -42 0
-916 -910 -40 0
-917 -911 -41 0
-918 -912 -42 0
-919 -913 -40 0
-920 -914 -41 0
-921 -915 -42 0
-922 -916 -40 0
-923 -917 -41 0
-924 -918 -42 0
-925 -919 -40 0
-926 -920 -41 0
-927 -921 -42 0
-928 -922 -40 0
-929 -923 -41 0
-930 -924 -42 0
-931 -925 -40 0
-932 -926 -41 0
-933 -927 -42 0
-934 -928 -40 0
-935 -929 -41 0
-936 -930 -42 0
-937 -931 -40 0
-938 -932 -41 0
-939 -933 -42 0
-940 -934 -40 0
-941 -935 -41 0
-942 -936 -42 0
-943 -937 -40 0
-944 -938 -41 0
-945 -939 -42 0
-946 -940 -40 0
-947 -941 -41 0
-948 -942 -42 0
-949 -943 -40 0
-950 -944 -41 0
-951 -945 -42 0
-952 -946 -40 0
-953 -947 -41 0
-954 -948 -42 0
-955 -949 -40 0
-956 -950 -41 0
-957 -951 -42 0
-958 -952 -40 0
-959 -953 -41 0
-960 -954 -42 0
-961 -955 -40 0
-962 -956 -41 0
-963 -957 -42 0
-964 -958 -40 0
-965 -959 -41 0
-966 -960 -42 0
-967 -961 -40 0
-968 -962 -41 0
-969 -963 -42 0
-970 -964 -40 0
-971 -965 -41 0
-972 -966 -42 0
-973 -967 -40 0
-974 -968 -41 0
-975 -969 -42 0
-976 -970 -40 0
-977 -971 -41 0
-978 -972 -42 0
-979 -973 -40 0
-980 -974 -41 0
-981 -975 -42 0
-982 -976 -40 0
-983 -977 -41 0
-984 -978 -42 0
-985 -979 -40 0
-986 -980 -41 0
-987 -981 -42 0
-988 -982 -40 0
-989 -983 -41 0
-990 -984 -42 0
-991 -985 -40 0
-992 -986 -41 0
-993 -987 -42 0
-994 -988 -40 0
-995 -989 -41 0
-996 -990 -42 0
-997 -991 -40 0
-998 -992 -41 0
-999 -993 -42 0
-1000 -994 -40 0
-1001 -995 -41 0
-1002 -996 -42 0
-1003 -997 -40 0
-1004 -998 -41 0
-1005 -999 -42 0
-1006 -1000 -40 0
-1007 -1001 -41 0
-1008 -1002 -42 0
-1009 -1003 -40 0
-1010 -1004 -41 0
-1011 -1005 -42 0
-1012 -1006 -40 0
-1013 -1007 -41 0
-1014 -1008 -42 0
-1015 -1009 -40 0
-1016 -1010 -41 0
-1017 -1011 -42 0
-1018 -1012 -40 0
-1019 -1013 -41 0
-1020 -1014 -42 0
-1021 -1015 -40 0
-1022 -1016 -41 0
-1023 -1017 -42 0
-1024 -1018 -40 0
-1025 -1019 -41 0
-1026 -1020 -42 0
-1027 -1021 -40 0
-1028 -1022 -41 0
-1029 -1023 -42 0
-61 -10 -1 0
-62 -11 -2 0
-63 -12 -3 0
-61 -13 -4 0
-62 -14 -5 0
-63 -15 -6 0
-61 -16 -7 0
-62 -17 -8 0
-63 -18 -9 0
-61 -19 -10 0
-62 -20 -11 0
-63 -21 -12 0
-61 -22 -13 0
-62 -23 -14 0
-63 -24 -15 0
-61 -25 -16 0
-62 -26 -17 0
-63 -27 -18 0
-61 -28 -19 0
-62 -29 -20 0
-63 -30 -21 0
-61 -31 -22 0
-62 -32 -23 0
-63 -33 -24 0
-61 -34 -25 0
-62 -35 -26 0
-63 -36 -27 0
-61 -37 -28 0
-62 -38 -29 0
-63 -39 -30 0
-61 -40 -31 0
-62 -41 -32 0
-63 -42 -33 0
-61 -43 -34 0
-62 -44 -35 0
-63 -45 -36 0
-61 -46 -37 0
-62 -47 -38 0
-63 -48 -39 0
-61 -49 -40 0
-62 -50 -41 0
-63 -51 -42 0
-61 -52 -43 0
-62 -53 -44 0
-63 -54 -45 0
-61 -55 -46 0
-62 -56 -47 0
-63 -57 -48 0
-61 -58 -49 0
-62 -59 -50 0
-63 -60 -51 0
-61 -52 0
-62 -53 0
-63 -54 0
-64 -61 -55 0
-65 -62 -56 0
-66 -63 -57 0
-67 -61 -58 0
-68 -62 -59 0
-69 -63 -60 0
-70 -61 0
-71 -62 0
-72 -63 0
-73 -64 -61 0
-74 -65 -62 0
-75 -66 -63 0
-76 -67 -61 0
-77 -68 -62 0
-78 -69 -63 0
-79 -70 -61 0
-80 -71 -62 0
-81 -72 -63 0
-82 -73 -61 0
-83 -74 -62 0
-84 -75 -63 0
-85 -76 -61 0
-86 -77 -62 0
-87 -78 -63 0
-88 -79 -61 0
-89 -80 -62 0
-90 -81 -63 0
-91 -82 -61 0
-92 -83 -62 0
-93 -84 -63 0
-94 -85 -61 0
-95 -86 -62 0
-96 -87 -63 0
-97 -88 -61 0
-98 -89 -62 0
-99 -90 -63 0
-100 -91 -61 0
-101 -92 -62 0
-102 -93 -63 0
-103 -94 -61 0
-104 -95 -62 0
-105 -96 -63 0
-106 -97 -61 0
-107 -98 -62 0
-108 -99 -63 0
-109 -100 -61 0
-110 -101 -62 0
-111 -102 -63 0
-112 -103 -61 0
-113 -104 -62 0
-114 -105 -63 0
-115 -106 -61 0
-116 -107 -62 0
-117 -108 -63 0
-118 -109 -61 0
-119 -110 -62 0
-120 -111 -63 0
-121 -112 -61 0
-122 -113 -62 0
-123 -114 -63 0
-124 -115 -61 0
-125 -116 -62 0
-126 -117 -63 0
-127 -118 -61 0
-128 -119 -62 0
-129 -120 -63 0
-130 -121 -61 0
-131 -122 -62 0
-132 -123 -63 0
-133 -124 -61 0
-134 -125 -62 0
-135 -126 -63 0
-136 -127 -61 0
-137 -128 -62 0
-138 -129 -63 0
-139 -130 -61 0
-140 -131 -62 0
-141 -132 -63 0
-142 -133 -61 0
-143 -134 -62 0
-144 -135 -63 0
-145 -136 -61 0
-146 -137 -62 0
-147 -138 -63 0
-148 -139 -61 0
-149 -140 -62 0
-150 -141 -63 0
-151 -142 -61 0
-152 -143 -62 0
-153 -144 -63 0
-154 -145 -61 0
-155 -146 -62 0
-156 -147 -63 0
-157 -148 -61 0
-158 -149 -62 0
-159 -150 -63 0
-160 -151 -61 0
-161 -152 -62 0
-162 -153 -63 0
-163 -154 -61 0
-164 -155 -62 0
-165 -156 -63 0
-166 -157 -61 0
-167 -158 -62 0
-168 -159 -63 0
-169 -160 -61 0
-170 -161 -62 0
-171 -162 -63 0
-172 -163 -61 0
-173 -164 -62 0
-174 -165 -63 0
-175 -166 -61 0
-176 -167 -62 0
-177 -168 -63 0
-178 -169 -61 0
-179 -170 -62 0
-180 -171 -63 0
-181 -172 -61 0
-182 -173 -62 0
-183 -174 -63 0
-184 -175 -61 0
-185 -176 -62 0
-186 -177 -63 0
-187 -178 -61 0
-188 -179 -62 0
-189 -180 -63 0
-190 -181 -61 0
-191 -182 -62 0
-192 -183 -63 0
-193 -184 -61 0
-194 -185 -62 0
-195 -186 -63 0
-196 -187 -61 0
-197 -188 -62 0
-198 -189 -63 0
-199 -190 -61 0
-200 -191 -62 0
-201 -192 -63 0
-202 -193 -61 0
-203 -194 -62 0
-204 -195 -63 0
-205 -196 -61 0
-206 -197 -62 0
-207 -198 -63 0
-208 -199 -61 0
-209 -200 -62 0
-210 -201 -63 0
-211 -202 -61 0
-212 -203 -62 0
-213 -204 -63 0
-214 -205 -61 0
-215 -206 -62 0
-216 -207 -63 0
-217 -208 -61 0
-218 -209 -62 0
-219 -210 -63 0
-220 -211 -61 0
-221 -212 -62 0
-222 -213 -63 0
-223 -214 -61 0
-224 -215 -62 0
-225 -216 -63 0
-226 -217 -61 0
-227 -218 -62 0
-228 -219 -63 0
-229 -220 -61 0
-230 -221 -62 0
-231 -222 -63 0
-232 -223 -61 0
-233 -224 -62 0
-234 -225 -63 0
-235 -226 -61 0
-236 -227 -62 0
-237 -228 -63 0
-238 -229 -61 0
-239 -230 -62 0
-240 -231 -63 0
-241 -232 -61 0
-242 -233 -62 0
-243 -234 -63 0
-244 -235 -61 0
-245 -236 -62 0
-246 -237 -63 0
-247 -238 -61 0
-248 -239 -62 0
-249 -240 -63 0
-250 -241 -61 0
-251 -242 -62 0
-252 -243 -63 0
-253 -244 -61 0
-254 -245 -62 0
-255 -246 -63 0
-256 -247 -61 0
-257 -248 -62 0
-258 -249 -63 0
-259 -250 -61 0
-260 -251 -62 0
-261 -252 -63 0
-262 -253 -61 0
-263 -254 -62 0
-264 -255 -63 0
-265 -256 -61 0
-266 -257 -62 0
-267 -258 -63 0
-268 -259 -61 0
-269 -260 -62 0
-270 -261 -63 0
-271 -262 -61 0
-272 -263 -62 0
-273 -264 -63 0
-274 -265 -61 0
-275 -266 -62 0
-276 -267 -63 0
-277 -268 -61 0
-278 -269 -62 0
-279 -270 -63 0
-280 -271 -61 0
-281 -272 -62 0
-282 -273 -63 0
-283 -274 -61 0
-284 -275 -62 0
-285 -276 -63 0
-286 -277 -61 0
-287 -278 -62 0
-288 -279 -63 0
-289 -280 -61 0
-290 -281 -62 0
-291 -282 -63 0
-292 -283 -61 0
-293 -284 -62 0
-294 -285 -63 0
-295 -286 -61 0
-296 -287 -62 0
-297 -288 -63 0
-298 -289 -61 0
-299 -290 -62 0
-300 -291 -63 0
-301 -292 -61 0
-302 -293 -62 0
-303 -294 -63 0
-304 -295 -61 0
-305 -296 -62 0
-306 -297 -63 0
-307 -298 -61 0
-308 -299 -62 0
-309 -300 -63 0
-310 -301 -61 0
-311 -302 -62 0
-312 -303 -63 0
-313 -304 -61 0
-314 -305 -62 0
-315 -306 -63 0
-316 -307 -61 0
-317 -308 -62 0
-318 -309 -63 0
-319 -310 -61 0
-320 -311 -62 0
-321 -312 -63 0
-322 -313 -61 0
-323 -314 -62 0
-324 -315 -63 0
-325 -316 -61 0
-326 -317 -62 0
-327 -318 -63 0
-328 -319 -61 0
-329 -320 -62 0
-330 -321 -63 0
-331 -322 -61 0
-332 -323 -62 0
-333 -324 -63 0
-334 -325 -61 0
-335 -326 -62 0
-336 -327 -63 0
-337 -328 -61 0
-338 -329 -62 0
-339 -330 -63 0
-340 -331 -61 0
-341 -332 -62 0
-342 -333 -63 0
-343 -334 -61 0
-344 -335 -62 0
-345 -336 -63 0
-346 -337 -61 0
-347 -338 -62 0
-348 -339 -63 0
-349 -340 -61 0
-350 -341 -62 0
-351 -342 -63 0
-352 -343 -61 0
-353 -344 -62 0
-354 -345 -63 0
-355 -346 -61 0
-356 -347 -62 0
-357 -348 -63 0
-358 -349 -61 0
-359 -350 -62 0
-360 -351 -63 0
-361 -352 -61 0
-362 -353 -62 0
-363 -354 -63 0
-364 -355 -61 0
-365 -356 -62 0
-366 -357 -63 0
-367 -358 -61 0
-368 -359 -62 0
-369 -360 -63 0
-370 -361 -61 0
-371 -362 -62 0
-372 -363 -63 0
-373 -364 -61 0
-374 -365 -62 0
-375 -366 -63 0
-376 -367 -61 0
-377 -368 -62 0
-378 -369 -63 0
-379 -370 -61 0
-380 -371 -62 0
-381 -372 -63 0
-382 -373 -61 0
-383 -374 -62 0
-384 -375 -63 0
-385 -376 -61 0
-386 -377 -62 0
-387 -378 -63 0
-388 -379 -61 0
-389 -380 -62 0
-390 -381 -63 0
-391 -382 -61 0
-392 -383 -62 0
-393 -384 -63 0
-394 -385 -61 0
-395 -386 -62 0
-396 -387 -63 0
-397 -388 -61 0
-398 -389 -62 0
-399 -390 -63 0
-400 -391 -61 0
-401 -392 -62 0
-402 -393 -63 0
-403 -394 -61 0
-404 -395 -62 0
-405 -396 -63 0
-406 -397 -61 0
-407 -398 -62 0
-408 -399 -63 0
-409 -400 -61 0
-410 -401 -62 0
-411 -402 -63 0
-412 -403 -61 0
-413 -404 -62 0
-414 -405 -63 0
-415 -406 -61 0
-416 -407 -62 0
-417 -408 -63 0
-418 -409 -61 0
-419 -410 -62 0
-420 -411 -63 0
-421 -412 -61 0
-422 -413 -62 0
-423 -414 -63 0
-424 -415 -61 0
-425 -416 -62 0
-426 -417 -63 0
-427 -418 -61 0
-428 -419 -62 0
-429 -420 -63 0
-430 -421 -61 0
-431 -422 -62 0
-432 -423 -63 0
-433 -424 -61 0
-434 -425 -62 0
-435 -426 -63 0
-436 -427 -61 0
-437 -428 -62 0
-438 -429 -63 0
-439 -430 -61 0
-440 -431 -62 0
-441 -432 -63 0
-442 -433 -61 0
-443 -434 -62 0
-444 -435 -63 0
-445 -436 -61 0
-446 -437 -62 0
-447 -438 -63 0
-448 -439 -61 0
-449 -440 -62 0
-450 -441 -63 0
-451 -442 -61 0
-452 -443 -62 0
-453 -444 -63 0
-454 -445 -61 0
-455 -446 -62 0
-456 -447 -63 0
-457 -448 -61 0
-458 -449 -62 0
-459 -450 -63 0
-460 -451 -61 0
-461 -452 -62 0
-462 -453 -63 0
-463 -454 -61 0
-464 -455 -62 0
-465 -456 -63 0
-466 -457 -61 0
-467 -458 -62 0
-468 -459 -63 0
-469 -460 -61 0
-470 -461 -62 0
-471 -462 -63 0
-472 -463 -61 0
-473 -464 -62 0
-474 -465 -63 0
-475 -466 -61 0
-476 -467 -62 0
-477 -468 -63 0
-478 -469 -61 0
-479 -470 -62 0
-480 -471 -63 0
-481 -472 -61 0
-482 -473 -62 0
-483 -474 -63 0
-484 -475 -61 0
-485 -476 -62 0
-486 -477 -63 0
-487 -478 -61 0
-488 -479 -62 0
-489 -480 -63 0
-490 -481 -61 0
-491 -482 -62 0
-492 -483 -63 0
-493 -484 -61 0
-494 -485 -62 0
-495 -486 -63 0
-496 -487 -61 0
-497 -488 -62 0
-498 -489 -63 0
-499 -490 -61 0
-500 -491 -62 0
-501 -492 -63 0
-502 -493 -61 0
-503 -494 -62 0
-504 -495 -63 0
-505 -496 -61 0
-506 -497 -62 0
-507 -498 -63 0
-508 -499 -61 0
-509 -500 -62 0
-510 -501 -63 0
-511 -502 -61 0
-512 -503 -62 0
-513 -504 -63 0
-514 -505 -61 0
-515 -506 -62 0
-516 -507 -63 0
-517 -508 -61 0
-518 -509 -62 0
-519 -510 -63 0
-520 -511 -61 0
-521 -512 -62 0
-522 -513 -63 0
-523 -514 -61 0
-524 -515 -62 0
-525 -516 -63 0
-526 -517 -61 0
-527 -518 -62 0
-528 -519 -63 0
-529 -520 -61 0
-530 -521 -62 0
-531 -522 -63 0
-532 -523 -61 0
-533 -524 -62 0
-534 -525 -63 0
-535 -526 -61 0
-536 -527 -62 0
-537 -528 -63 0
-538 -529 -61 0
-539 -530 -62 0
-540 -531 -63 0
-541 -532 -61 0
-542 -533 -62 0
-543 -534 -63 0
-544 -535 -61 0
-545 -536 -62 0
-546 -537 -63 0
-547 -538 -61 0
-548 -539 -62 0
-549 -540 -63 0
-550 -541 -61 0
-551 -542 -62 0
-552 -543 -63 0
-553 -544 -61 0
-554 -545 -62 0
-555 -546 -63 0
-556 -547 -61 0
-557 -548 -62 0
-558 -549 -63 0
-559 -550 -61 0
-560 -551 -62 0
-561 -552 -63 0
-562 -553 -61 0
-563 -554 -62 0
-564 -555 -63 0
-565 -556 -61 0
-566 -557 -62 0
-567 -558 -63 0
-568 -559 -61 0
-569 -560 -62 0
-570 -561 -63 0
-571 -562 -61 0
-572 -563 -62 0
-573 -564 -63 0
-574 -565 -61 0
-575 -566 -62 0
-576 -567 -63 0
-577 -568 -61 0
-578 -569 -62 0
-579 -570 -63 0
-580 -571 -61 0
-581 -572 -62 0
-582 -573 -63 0
-583 -574 -61 0
-584 -575 -62 0
-585 -576 -63 0
-586 -577 -61 0
-587 -578 -62 0
-588 -579 -63 0
-589 -580 -61 0
-590 -581 -62 0
-591 -582 -63 0
-592 -583 -61 0
-593 -584 -62 0
-594 -585 -63 0
-595 -586 -61 0
-596 -587 -62 0
-597 -588 -63 0
-598 -589 -61 0
-599 -590 -62 0
-600 -591 -63 0
-601 -592 -61 0
-602 -593 -62 0
-603 -594 -63 0
-604 -595 -61 0
-605 -596 -62 0
-606 -597 -63 0
-607 -598 -61 0
-608 -599 -62 0
-609 -600 -63 0
-610 -601 -61 0
-611 -602 -62 0
-612 -603 -63 0
-613 -604 -61 0
-614 -605 -62 0
-615 -606 -63 0
-616 -607 -61 0
-617 -608 -62 0
-618 -609 -63 0
-619 -610 -61 0
-620 -611 -62 0
-621 -612 -63 0
-622 -613 -61 0
-623 -614 -62 0
-624 -615 -63 0
-625 -616 -61 0
-626 -617 -62 0
-627 -618 -63 0
-628 -619 -61 0
-629 -620 -62 0
-630 -621 -63 0
-631 -622 -61 0
-632 -623 -62 0
-633 -624 -63 0
-634 -625 -61 0
-635 -626 -62 0
-636 -627 -63 0
-637 -628 -61 0
-638 -629 -62 0
-639 -630 -63 0
-640 -631 -61 0
-641 -632 -62 0
-642 -633 -63 0
-643 -634 -61 0
-644 -635 -62 0
-645 -636 -63 0
-646 -637 -61 0
-647 -638 -62 0
-648 -639 -63 0
-649 -640 -61 0
-650 -641 -62 0
-651 -642 -63 0
-652 -643 -61 0
-653 -644 -62 0
-654 -645 -63 0
-655 -646 -61 0
-656 -647 -62 0
-657 -648 -63 0
-658 -649 -61 0
-659 -650 -62 0
-660 -651 -63 0
-661 -652 -61 0
-662 -653 -62 0
-663 -654 -63 0
-664 -655 -61 0
-665 -656 -62 0
-666 -657 -63 0
-667 -658 -61 0
-668 -659 -62 0
-669 -660 -63 0
-670 -661 -61 0
-671 -662 -62 0
-672 -663 -63 0
-673 -664 -61 0
-674 -665 -62 0
-675 -666 -63 0
-676 -667 -61 0
-677 -668 -62 0
-678 -669 -63 0
-679 -670 -61 0
-680 -671 -62 0
-681 -672 -63 0
-682 -673 -61 0
-683 -674 -62 0
-684 -675 -63 0
-685 -676 -61 0
-686 -677 -62 0
-687 -678 -63 0
-688 -679 -61 0
-689 -680 -62 0
-690 -681 -63 0
-691 -682 -61 0
-692 -683 -62 0
-693 -684 -63 0
-694 -685 -61 0
-695 -686 -62 0
-696 -687 -63 0
-697 -688 -61 0
-698 -689 -62 0
-699 -690 -63 0
-700 -691 -61 0
-701 -692 -62 0
-702 -693 -63 0
-703 -694 -61 0
-704 -695 -62 0
-705 -696 -63 0
-706 -697 -61 0
-707 -698 -62 0
-708 -699 -63 0
-709 -700 -61 0
-710 -701 -62 0
-711 -702 -63 0
-712 -703 -61 0
-713 -704 -62 0
-714 -705 -63 0
-715 -706 -61 0
-716 -707 -62 0
-717 -708 -63 0
-718 -709 -61 0
-719 -710 -62 0
-720 -711 -63 0
-721 -712 -61 0
-722 -713 -62 0
-723 -714 -63 0
-724 -715 -61 0
-725 -716 -62 0
-726 -717 -63 0
-727 -718 -61 0
-728 -719 -62 0
-729 -720 -63 0
-730 -721 -61 0
-731 -722 -62 0
-732 -723 -63 0
-733 -724 -61 0
-734 -725 -62 0
-735 -726 -63 0
-736 -727 -61 0
-737 -728 -62 0
-738 -729 -63 0
-739 -730 -61 0
-740 -731 -62 0
-741 -732 -63 0
-742 -733 -61 0
-743 -734 -62 0
-744 -735 -63 0
-745 -736 -61 0
-746 -737 -62 0
-747 -738 -63 0
-748 -739 -61 0
-749 -740 -62 0
-750 -741 -63 0
-751 -742 -61 0
-752 -743 -62 0
-753 -744 -63 0
-754 -745 -61 0
-755 -746 -62 0
-756 -747 -63 0
-757 -748 -61 0
-758 -749 -62 0
-759 -750 -63 0
-760 -751 -61 0
-761 -752 -62 0
-762 -753 -63 0
-763 -754 -61 0
-764 -755 -62 0
-765 -756 -63 0
-766 -757 -61 0
-767 -758 -62 0
-768 -759 -63 0
-769 -760 -61 0
-770 -761 -62 0
-771 -762 -63 0
-772 -763 -61 0
-773 -764 -62 0
-774 -765 -63 0
-775 -766 -61 0
-776 -767 -62 0
-777 -768 -63 0
-778 -769 -61 0
-779 -770 -62 0
-780 -771 -63 0
-781 -772 -61 0
-782 -773 -62 0
-783 -774 -63 0
-784 -775 -61 0
-785 -776 -62 0
-786 -777 -63 0
-787 -778 -61 0
-788 -779 -62 0
-789 -780 -63 0
-790 -781 -61 0
-791 -782 -62 0
-792 -783 -63 0
-793 -784 -61 0
-794 -785 -62 0
-795 -786 -63 0
-796 -787 -61 0
-797 -788 -62 0
-798 -789 -63 0
-799 -790 -61 0
-800 -791 -62 0
-801 -792 -63 0
-802 -793 -61 0
-803 -794 -62 0
-804 -795 -63 0
-805 -796 -61 0
-806 -797 -62 0
-807 -798 -63 0
-808 -799 -61 0
-809 -800 -62 0
-810 -801 -63 0
-811 -802 -61 0
-812 -803 -62 0
-813 -804 -63 0
-814 -805 -61 0
-815 -806 -62 0
-816 -807 -63 0
-817 -808 -61 0
-818 -809 -62 0
-819 -810 -63 0
-820 -811 -61 0
-821 -812 -62 0
-822 -813 -63 0
-823 -814 -61 0
-824 -815 -62 0
-825 -816 -63 0
-826 -817 -61 0
-827 -818 -62 0
-828 -819 -63 0
-829 -820 -61 0
-830 -821 -62 0
-831 -822 -63 0
-832 -823 -61 0
-833 -824 -62 0
-834 -825 -63 0
-835 -826 -61 0
-836 -827 -62 0
-837 -828 -63 0
-838 -829 -61 0
-839 -830 -62 0
-840 -831 -63 0
-841 -832 -61 0
-842 -833 -62 0
-843 -834 -63 0
-844 -835 -61 0
-845 -836 -62 0
-846 -837 -63 0
-847 -838 -61 0
-848 -839 -62 0
-849 -840 -63 0
-850 -841 -61 0
-851 -842 -62 0
-852 -843 -63 0
-853 -844 -61 0
-854 -845 -62 0
-855 -846 -63 0
-856 -847 -61 0
-857 -848 -62 0
-858 -849 -63 0
-859 -850 -61 0
-860 -851 -62 0
-861 -852 -63 0
-862 -853 -61 0
-863 -854 -62 0
-864 -855 -63 0
-865 -856 -61 0
-866 -857 -62 0
-867 -858 -63 0
-868 -859 -61 0
-869 -860 -62 0
-870 -861 -63 0
-871 -862 -61 0
-872 -863 -62 0
-873 -864 -63 0
-874 -865 -61 0
-875 -866 -62 0
-876 -867 -63 0
-877 -868 -61 0
-878 -869 -62 0
-879 -870 -63 0
-880 -871 -61 0
-881 -872 -62 0
-882 -873 -63 0
-883 -874 -61 0
-884 -875 -62 0
-885 -876 -63 0
-886 -877 -61 0
-887 -878 -62 0
-888 -879 -63 0
-889 -880 -61 0
-890 -881 -62 0
-891 -882 -63 0
-892 -883 -61 0
-893 -884 -62 0
-894 -885 -63 0
-895 -886 -61 0
-896 -887 -62 0
-897 -888 -63 0
-898 -889 -61 0
-899 -890 -62 0
-900 -891 -63 0
-901 -892 -61 0
-902 -893 -62 0
-903 -894 -63 0
-904 -895 -61 0
-905 -896 -62 0
-906 -897 -63 0
-907 -898 -61 0
-908 -899 -62 0
-909 -900 -63 0
-910 -901 -61 0
-911 -902 -62 0
-912 -903 -63 0
-913 -904 -61 0
-914 -905 -62 0
-915 -906 -63 0
-916 -907 -61 0
-917 -908 -62 0
-918 -909 -63 0
-919 -910 -61 0
-920 -911 -62 0
-921 -912 -63 0
-922 -913 -61 0
-923 -914 -62 0
-924 -915 -63 0
-925 -916 -61 0
-926 -917 -62 0
-927 -918 -63 0
-928 -919 -61 0
-929 -920 -62 0
-930 -921 -63 0
-931 -922 -61 0
-932 -923 -62 0
-933 -924 -63 0
-934 -925 -61 0
-935 -926 -62 0
-936 -927 -63 0
-937 -928 -61 0
-938 -929 -62 0
-939 -930 -63 0
-940 -931 -61 0
-941 -932 -62 0
-942 -933 -63 0
-943 -934 -61 0
-944 -935 -62 0
-945 -936 -63 0
-946 -937 -61 0
-947 -938 -62 0
-948 -939 -63 0
-949 -940 -61 0
-950 -941 -62 0
-951 -942 -63 0
-952 -943 -61 0
-953 -944 -62 0
-954 -945 -63 0
-955 -946 -61 0
-956 -947 -62 0
-957 -948 -63 0
-958 -949 -61 0
-959 -950 -62 0
-960 -951 -63 0
-961 -952 -61 0
-962 -953 -62 0
-963 -954 -63 0
-964 -955 -61 0
-965 -956 -62 0
-966 -957 -63 0
-967 -958 -61 0
-968 -959 -62 0
-969 -960 -63 0
-970 -961 -61 0
-971 -962 -62 0
-972 -963 -63 0
-973 -964 -61 0
-974 -965 -62 0
-975 -966 -63 0
-976 -967 -61 0
-977 -968 -62 0
-978 -969 -63 0
-979 -970 -61 0
-980 -971 -62 0
-981 -972 -63 0
-982 -973 -61 0
-983 -974 -62 0
-984 -975 -63 0
-985 -976 -61 0
-986 -977 -62 0
-987 -978 -63 0
-988 -979 -61 0
-989 -980 -62 0
-990 -981 -63 0
-991 -982 -61 0
-992 -983 -62 0
-993 -984 -63 0
-994 -985 -61 0
-995 -986 -62 0
-996 -987 -63 0
-997 -988 -61 0
-998 -989 -62 0
-999 -990 -63 0
-1000 -991 -61 0
-1001 -992 -62 0
-1002 -993 -63 0
-1003 -994 -61 0
-1004 -995 -62 0
-1005 -996 -63 0
-1006 -997 -61 0
-1007 -998 -62 0
-1008 -999 -63 0
-1009 -1000 -61 0
-1010 -1001 -62 0
-1011 -1002 -63 0
-1012 -1003 -61 0
-1013 -1004 -62 0
-1014 -1005 -63 0
-1015 -1006 -61 0
-1016 -1007 -62 0
-1017 -1008 -63 0
-1018 -1009 -61 0
-1019 -1010 -62 0
-1020 -1011 -63 0
-1021 -1012 -61 0
-1022 -1013 -62 0
-1023 -1014 -63 0
-1024 -1015 -61 0
-1025 -1016 -62 0
-1026 -1017 -63 0
-1027 -1018 -61 0
-1028 -1019 -62 0
-1029 -1020 -63 0
-82 -13 -1 0
-83 -14 -2 0
-84 -15 -3 0
-82 -16 -4 0
-83 -17 -5 0
-84 -18 -6 0
-82 -19 -7 0
-83 -20 -8 0
-84 -21 -9 0
-82 -22 -10 0
-83 -23 -11 0
-84 -24 -12 0
-82 -25 -13 0
-83 -26 -14 0
-84 -27 -15 0
-82 -28 -16 0
-83 -29 -17 0
-84 -30 -18 0
-82 -31 -19 0
-83 -32 -20 0
-84 -33 -21 0
-82 -34 -22 0
-83 -35 -23 0
-84 -36 -24 0
-82 -37 -25 0
-83 -38 -26 0
-84 -39 -27 0
-82 -40 -28 0
-83 -41 -29 0
-84 -42 -30 0
-82 -43 -31 0
-83 -44 -32 0
-84 -45 -33 0
-82 -46 -34 0
-83 -47 -35 0
-84 -48 -36 0
-82 -49 -37 0
-83 -50 -38 0
-84 -51 -39 0
-82 -52 -40 0
-83 -53 -41 0
-84 -54 -42 0
-82 -55 -43 0
-83 -56 -44 0
-84 -57 -45 0
-82 -58 -46 0
-83 -59 -47 0
-84 -60 -48 0
-82 -61 -49 0
-83 -62 -50 0
-84 -63 -51 0
-82 -64 -52 0
-83 -65 -53 0
-84 -66 -54 0
-82 -67 -55 0
-83 -68 -56 0
-84 -69 -57 0
-82 -70 -58 0
-83 -71 -59 0
-84 -72 -60 0
-82 -73 -61 0
-83 -74 -62 0
-84 -75 -63 0
-82 -76 -64 0
-83 -77 -65 0
-84 -78 -66 0
-82 -79 -67 0
-83 -80 -68 0
-84 -81 -69 0
-82 -70 0
-83 -71 0
-84 -72 0
-85 -82 -73 0
-86 -83 -74 0
-87 -84 -75 0
-88 -82 -76 0
-89 -83 -77 0
-90 -84 -78 0
-91 -82 -79 0
-92 -83 -80 0
-93 -84 -81 0
-94 -82 0
-95 -83 0
-96 -84 0
-97 -85 -82 0
-98 -86 -83 0
-99 -87 -84 0
-100 -88 -82 0
-101 -89 -83 0
-102 -90 -84 0
-103 -91 -82 0
-104 -92 -83 0
-105 -93 -84 0
-106 -94 -82 0
-107 -95 -83 0
-108 -96 -84 0
-109 -97 -82 0
-110 -98 -83 0
-111 -99 -84 0
-112 -100 -82 0
-113 -101 -83 0
-114 -102 -84 0
-115 -103 -82 0
-116 -104 -83 0
-117 -105 -84 0
-118 -106 -82 0
-119 -107 -83 0
-120 -108 -84 0
-121 -109 -82 0
-122 -110 -83 0
-123 -111 -84 0
-124 -112 -82 0
-125 -113 -83 0
-126 -114 -84 0
-127 -115 -82 0
-128 -116 -83 0
-129 -117 -84 0
-130 -118 -82 0
-131 -119 -83 0
-132 -120 -84 0
-133 -121 -82 0
-134 -122 -83 0
-135 -123 -84 0
-136 -124 -82 0
-137 -125 -83 0
-138 -126 -84 0
-139 -127 -82 0
-140 -128 -83 0
-141 -129 -84 0
-142 -130 -82 0
-143 -131 -83 0
-144 -132 -84 0
-145 -133 -82 0
-146 -134 -83 0
-147 -135 -84 0
-148 -136 -82 0
-149 -137 -83 0
-150 -138 -84 0
-151 -139 -82 0
-152 -140 -83 0
-153 -141 -84 0
-154 -142 -82 0
-155 -143 -83 0
-156 -144 -84 0
-157 -145 -82 0
-158 -146 -83 0
-159 -147 -84 0
-160 -148 -82 0
-161 -149 -83 0
-162 -150 -84 0
-163 -151 -82 0
-164 -152 -83 0
-165 -153 -84 0
-166 -154 -82 0
-167 -155 -83 0
-168 -156 -84 0
-169 -157 -82 0
-170 -158 -83 0
-171 -159 -84 0
-172 -160 -82 0
-173 -161 -83 0
-174 -162 -84 0
-175 -163 -82 0
-176 -164 -83 0
-177 -165 -84 0
-178 -166 -82 0
-179 -167 -83 0
-180 -168 -84 0
-181 -169 -82 0
-182 -170 -83 0
-183 -171 -84 0
-184 -172 -82 0
-185 -173 -83 0
-186 -174 -84 0
-187 -175 -82 0
-188 -176 -83 0
-189 -177 -84 0
-190 -178 -82 0
-191 -179 -83 0
-192 -180 -84 0
-193 -181 -82 0
-194 -182 -83 0
-195 -183 -84 0
-196 -184 -82 0
-197 -185 -83 0
-198 -186 -84 0
-199 -187 -82 0
-200 -188 -83 0
-201 -189 -84 0
-202 -190 -82 0
-203 -191 -83 0
-204 -192 -84 0
-205 -193 -82 0
-206 -194 -83 0
-207 -195 -84 0
-208 -196 -82 0
-209 -197 -83 0
-210 -198 -84 0
-211 -199 -82 0
-212 -200 -83 0
-213 -201 -84 0
-214 -202 -82 0
-215 -203 -83 0
-216 -204 -84 0
-217 -205 -82 0
-218 -206 -83 0
-219 -207 -84 0
-220 -208 -82 0
-221 -209 -83 0
-222 -210 -84 0
-223 -211 -82 0
-224 -212 -83 0
-225 -213 -84 0
-226 -214 -82 0
-227 -215 -83 0
-228 -216 -84 0
-229 -217 -82 0
-230 -218 -83 0
-231 -219 -84 0
-232 -220 -82 0
-233 -221 -83 0
-234 -222 -84 0
-235 -223 -82 0
-236 -224 -83 0
-237 -225 -84 0
-238 -226 -82 0
-239 -227 -83 0
-240 -228 -84 0
-241 -229 -82 0
-242 -230 -83 0
-243 -231 -84 0
-244 -232 -82 0
-245 -233 -83 0
-246 -234 -84 0
-247 -235 -82 0
-248 -236 -83 0
-249 -237 -84 0
-250 -238 -82 0
-251 -239 -83 0
-252 -240 -84 0
-253 -241 -82 0
-254 -242 -83 0
-255 -243 -84 0
-256 -244 -82 0
-257 -245 -83 0
-258 -246 -84 0
-259 -247 -82 0
-260 -248 -83 0
-261 -249 -84 0
-262 -250 -82 0
-263 -251 -83 0
-264 -252 -84 0
-265 -253 -82 0
-266 -254 -83 0
-267 -255 -84 0
-268 -256 -82 0
-269 -257 -83 0
-270 -258 -84 0
-271 -259 -82 0
-272 -260 -83 0
-273 -261 -84 0
-274 -262 -82 0
-275 -263 -83 0
-276 -264 -84 0
-277 -265 -82 0
-278 -266 -83 0
-279 -267 -84 0
-280 -268 -82 0
-281 -269 -83 0
-282 -270 -84 0
-283 -271 -82 0
-284 -272 -83 0
-285 -273 -84 0
-286 -274 -82 0
-287 -275 -83 0
-288 -276 -84 0
-289 -277 -82 0
-290 -278 -83 0
-291 -279 -84 0
-292 -280 -82 0
-293 -281 -83 0
-294 -282 -84 0
-295 -283 -82 0
-296 -284 -83 0
-297 -285 -84 0
-298 -286 -82 0
-299 -287 -83 0
-300 -288 -84 0
-301 -289 -82 0
-302 -290 -83 0
-303 -291 -84 0
-304 -292 -82 0
-305 -293 -83 0
-306 -294 -84 0
-307 -295 -82 0
-308 -296 -83 0
-309 -297 -84 0
-310 -298 -82 0
-311 -299 -83 0
-312 -300 -84 0
-313 -301 -82 0
-314 -302 -83 0
-315 -303 -84 0
-316 -304 -82 0
-317 -305 -83 0
-318 -306 -84 0
-319 -307 -82 0
-320 -308 -83 0
-321 -309 -84 0
-322 -310 -82 0
-323 -311 -83 0
-324 -312 -84 0
-325 -313 -82 0
-326 -314 -83 0
-327 -315 -84 0
-328 -316 -82 0
-329 -317 -83 0
-330 -318 -84 0
-331 -319 -82 0
-332 -320 -83 0
-333 -321 -84 0
-334 -322 -82 0
-335 -323 -83 0
-336 -324 -84 0
-337 -325 -82 0
-338 -326 -83 0
-339 -327 -84 0
-340 -328 -82 0
-341 -329 -83 0
-342 -330 -84 0
-343 -331 -82 0
-344 -332 -83 0
-345 -333 -84 0
-346 -334 -82 0
-347 -335 -83 0
-348 -336 -84 0
-349 -337 -82 0
-350 -338 -83 0
-351 -339 -84 0
-352 -340 -82 0
-353 -341 -83 0
-354 -342 -84 0
-355 -343 -82 0
-356 -344 -83 0
-357 -345 -84 0
-358 -346 -82 0
-359 -347 -83 0
-360 -348 -84 0
-361 -349 -82 0
-362 -350 -83 0
-363 -351 -84 0
-364 -352 -82 0
-365 -353 -83 0
-366 -354 -84 0
-367 -355 -82 0
-368 -356 -83 0
-369 -357 -84 0
-370 -358 -82 0
-371 -359 -83 0
-372 -360 -84 0
-373 -361 -82 0
-374 -362 -83 0
-375 -363 -84 0
-376 -364 -82 0
-377 -365 -83 0
-378 -366 -84 0
-379 -367 -82 0
-380 -368 -83 0
-381 -369 -84 0
-382 -370 -82 0
-383 -371 -83 0
-384 -372 -84 0
-385 -373 -82 0
-386 -374 -83 0
-387 -375 -84 0
-388 -376 -82 0
-389 -377 -83 0
-390 -378 -84 0
-391 -379 -82 0
-392 -380 -83 0
-393 -381 -84 0
-394 -382 -82 0
-395 -383 -83 0
-396 -384 -84 0
-397 -385 -82 0
-398 -386 -83 0
-399 -387 -84 0
-400 -388 -82 0
-401 -389 -83 0
-402 -390 -84 0
-403 -391 -82 0
-404 -392 -83 0
-405 -393 -84 0
-406 -394 -82 0
-407 -395 -83 0
-408 -396 -84 0
-409 -397 -82 0
-410 -398 -83 0
-411 -399 -84 0
-412 -400 -82 0
-413 -401 -83 0
-414 -402 -84 0
-415 -403 -82 0
-416 -404 -83 0
-417 -405 -84 0
-418 -406 -82 0
-419 -407 -83 0
-420 -408 -84 0
-421 -409 -82 0
-422 -410 -83 0
-423 -411 -84 0
-424 -412 -82 0
-425 -413 -83 0
-426 -414 -84 0
-427 -415 -82 0
-428 -416 -83 0
-429 -417 -84 0
-430 -418 -82 0
-431 -419 -83 0
-432 -420 -84 0
-433 -421 -82 0
-434 -422 -83 0
-435 -423 -84 0
-436 -424 -82 0
-437 -425 -83 0
-438 -426 -84 0
-439 -427 -82 0
-440 -428 -83 0
-441 -429 -84 0
-442 -430 -82 0
-443 -431 -83 0
-444 -432 -84 0
-445 -433 -82 0
-446 -434 -83 0
-447 -435 -84 0
-448 -436 -82 0
-449 -437 -83 0
-450 -438 -84 0
-451 -439 -82 0
-452 -440 -83 0
-453 -441 -84 0
-454 -442 -82 0
-455 -443 -83 0
-456 -444 -84 0
-457 -445 -82 0
-458 -446 -83 0
-459 -447 -84 0
-460 -448 -82 0
-461 -449 -83 0
-462 -450 -84 0
-463 -451 -82 0
-464 -452 -83 0
-465 -453 -84 0
-466 -454 -82 0
-467 -455 -83 0
-468 -456 -84 0
-469 -457 -82 0
-470 -458 -83 0
-471 -459 -84 0
-472 -460 -82 0
-473 -461 -83 0
-474 -462 -84 0
-475 -463 -82 0
-476 -464 -83 0
-477 -465 -84 0
-478 -466 -82 0
-479 -467 -83 0
-480 -468 -84 0
-481 -469 -82 0
-482 -470 -83 0
-483 -471 -84 0
-484 -472 -82 0
-485 -473 -83 0
-486 -474 -84 0
-487 -475 -82 0
-488 -476 -83 0
-489 -477 -84 0
-490 -478 -82 0
-491 -479 -83 0
-492 -480 -84 0
-493 -481 -82 0
-494 -482 -83 0
-495 -483 -84 0
-496 -484 -82 0
-497 -485 -83 0
-498 -486 -84 0
-499 -487 -82 0
-500 -488 -83 0
-501 -489 -84 0
-502 -490 -82 0
-503 -491 -83 0
-504 -492 -84 0
-505 -493 -82 0
-506 -494 -83 0
-507 -495 -84 0
-508 -496 -82 0
-509 -497 -83 0
-510 -498 -84 0
-511 -499 -82 0
-512 -500 -83 0
-513 -501 -84 0
-514 -502 -82 0
-515 -503 -83 0
-516 -504 -84 0
-517 -505 -82 0
-518 -506 -83 0
-519 -507 -84 0
-520 -508 -82 0
-521 -509 -83 0
-522 -510 -84 0
-523 -511 -82 0
-524 -512 -83 0
-525 -513 -84 0
-526 -514 -82 0
-527 -515 -83 0
-528 -516 -84 0
-529 -517 -82 0
-530 -518 -83 0
-531 -519 -84 0
-532 -520 -82 0
-533 -521 -83 0
-534 -522 -84 0
-535 -523 -82 0
-536 -524 -83 0
-537 -525 -84 0
-538 -526 -82 0
-539 -527 -83 0
-540 -528 -84 0
-541 -529 -82 0
-542 -530 -83 0
-543 -531 -84 0
-544 -532 -82 0
-545 -533 -83 0
-546 -534 -84 0
-547 -535 -82 0
-548 -536 -83 0
-549 -537 -84 0
-550 -538 -82 0
-551 -539 -83 0
-552 -540 -84 0
-553 -541 -82 0
-554 -542 -83 0
-555 -543 -84 0
-556 -544 -82 0
-557 -545 -83 0
-558 -546 -84 0
-559 -547 -82 0
-560 -548 -83 0
-561 -549 -84 0
-562 -550 -82 0
-563 -551 -83 0
-564 -552 -84 0
-565 -553 -82 0
-566 -554 -83 0
-567 -555 -84 0
-568 -556 -82 0
-569 -557 -83 0
-570 -558 -84 0
-571 -559 -82 0
-572 -560 -83 0
-573 -561 -84 0
-574 -562 -82 0
-575 -563 -83 0
-576 -564 -84 0
-577 -565 -82 0
-578 -566 -83 0
-579 -567 -84 0
-580 -568 -82 0
-581 -569 -83 0
-582 -570 -84 0
-583 -571 -82 0
-584 -572 -83 0
-585 -573 -84 0
-586 -574 -82 0
-587 -575 -83 0
-588 -576 -84 0
-589 -577 -82 0
-590 -578 -83 0
-591 -579 -84 0
-592 -580 -82 0
-593 -581 -83 0
-594 -582 -84 0
-595 -583 -82 0
-596 -584 -83 0
-597 -585 -84 0
-598 -586 -82 0
-599 -587 -83 0
-600 -588 -84 0
-601 -589 -82 0
-602 -590 -83 0
-603 -591 -84 0
-604 -592 -82 0
-605 -593 -83 0
-606 -594 -84 0
-607 -595 -82 0
-608 -596 -83 0
-609 -597 -84 0
-610 -598 -82 0
-611 -599 -83 0
-612 -600 -84 0
-613 -601 -82 0
-614 -602 -83 0
-615 -603 -84 0
-616 -604 -82 0
-617 -605 -83 0
-618 -606 -84 0
-619 -607 -82 0
-620 -608 -83 0
-621 -609 -84 0
-622 -610 -82 0
-623 -611 -83 0
-624 -612 -84 0
-625 -613 -82 0
-626 -614 -83 0
-627 -615 -84 0
-628 -616 -82 0
-629 -617 -83 0
-630 -618 -84 0
-631 -619 -82 0
-632 -620 -83 0
-633 -621 -84 0
-634 -622 -82 0
-635 -623 -83 0
-636 -624 -84 0
-637 -625 -82 0
-638 -626 -83 0
-639 -627 -84 0
-640 -628 -82 0
-641 -629 -83 0
-642 -630 -84 0
-643 -631 -82 0
-644 -632 -83 0
-645 -633 -84 0
-646 -634 -82 0
-647 -635 -83 0
-648 -636 -84 0
-649 -637 -82 0
-650 -638 -83 0
-651 -639 -84 0
-652 -640 -82 0
-653 -641 -83 0
-654 -642 -84 0
-655 -643 -82 0
-656 -644 -83 0
-657 -645 -84 0
-658 -646 -82 0
-659 -647 -83 0
-660 -648 -84 0
-661 -649 -82 0
-662 -650 -83 0
-663 -651 -84 0
-664 -652 -82 0
-665 -653 -83 0
-666 -654 -84 0
-667 -655 -82 0
-668 -656 -83 0
-669 -657 -84 0
-670 -658 -82 0
-671 -659 -83 0
-672 -660 -84 0
-673 -661 -82 0
-674 -662 -83 0
-675 -663 -84 0
-676 -664 -82 0
-677 -665 -83 0
-678 -666 -84 0
-679 -667 -82 0
-680 -668 -83 0
-681 -669 -84 0
-682 -670 -82 0
-683 -671 -83 0
-684 -672 -84 0
-685 -673 -82 0
-686 -674 -83 0
-687 -675 -84 0
-688 -676 -82 0
-689 -677 -83 0
-690 -678 -84 0
-691 -679 -82 0
-692 -680 -83 0
-693 -681 -84 0
-694 -682 -82 0
-695 -683 -83 0
-696 -684 -84 0
-697 -685 -82 0
-698 -686 -83 0
-699 -687 -84 0
-700 -688 -82 0
-701 -689 -83 0
-702 -690 -84 0
-703 -691 -82 0
-704 -692 -83 0
-705 -693 -84 0
-706 -694 -82 0
-707 -695 -83 0
-708 -696 -84 0
-709 -697 -82 0
-710 -698 -83 0
-711 -699 -84 0
-712 -700 -82 0
-713 -701 -83 0
-714 -702 -84 0
-715 -703 -82 0
-716 -704 -83 0
-717 -705 -84 0
-718 -706 -82 0
-719 -707 -83 0
-720 -708 -84 0
-721 -709 -82 0
-722 -710 -83 0
-723 -711 -84 0
-724 -712 -82 0
-725 -713 -83 0
-726 -714 -84 0
-727 -715 -82 0
-728 -716 -83 0
-729 -717 -84 0
-730 -718 -82 0
-731 -719 -83 0
-732 -720 -84 0
-733 -721 -82 0
-734 -722 -83 0
-735 -723 -84 0
-736 -724 -82 0
-737 -725 -83 0
-738 -726 -84 0
-739 -727 -82 0
-740 -728 -83 0
-741 -729 -84 0
-742 -730 -82 0
-743 -731 -83 0
-744 -732 -84 0
-745 -733 -82 0
-746 -734 -83 0
-747 -735 -84 0
-748 -736 -82 0
-749 -737 -83 0
-750 -738 -84 0
-751 -739 -82 0
-752 -740 -83 0
-753 -741 -84 0
-754 -742 -82 0
-755 -743 -83 0
-756 -744 -84 0
-757 -745 -82 0
-758 -746 -83 0
-759 -747 -84 0
-760 -748 -82 0
-761 -749 -83 0
-762 -750 -84 0
-763 -751 -82 0
-764 -752 -83 0
-765 -753 -84 0
-766 -754 -82 0
-767 -755 -83 0
-768 -756 -84 0
-769 -757 -82 0
-770 -758 -83 0
-771 -759 -84 0
-772 -760 -82 0
-773 -761 -83 0
-774 -762 -84 0
-775 -763 -82 0
-776 -764 -83 0
-777 -765 -84 0
-778 -766 -82 0
-779 -767 -83 0
-780 -768 -84 0
-781 -769 -82 0
-782 -770 -83 0
-783 -771 -84 0
-784 -772 -82 0
-785 -773 -83 0
-786 -774 -84 0
-787 -775 -82 0
-788 -776 -83 0
-789 -777 -84 0
-790 -778 -82 0
-791 -779 -83 0
-792 -780 -84 0
-793 -781 -82 0
-794 -782 -83 0
-795 -783 -84 0
-796 -784 -82 0
-797 -785 -83 0
-798 -786 -84 0
-799 -787 -82 0
-800 -788 -83 0
-801 -789 -84 0
-802 -790 -82 0
-803 -791 -83 0
-804 -792 -84 0
-805 -793 -82 0
-806 -794 -83 0
-807 -795 -84 0
-808 -796 -82 0
-809 -797 -83 0
-810 -798 -84 0
-811 -799 -82 0
-812 -800 -83 0
-813 -801 -84 0
-814 -802 -82 0
-815 -803 -83 0
-816 -804 -84 0
-817 -805 -82 0
-818 -806 -83 0
-819 -807 -84 0
-820 -808 -82 0
-821 -809 -83 0
-822 -810 -84 0
-823 -811 -82 0
-824 -812 -83 0
-825 -813 -84 0
-826 -814 -82 0
-827 -815 -83 0
-828 -816 -84 0
-829 -817 -82 0
-830 -818 -83 0
-831 -819 -84 0
-832 -820 -82 0
-833 -821 -83 0
-834 -822 -84 0
-835 -823 -82 0
-836 -824 -83 0
-837 -825 -84 0
-838 -826 -82 0
-839 -827 -83 0
-840 -828 -84 0
-841 -829 -82 0
-842 -830 -83 0
-843 -831 -84 0
-844 -832 -82 0
-845 -833 -83 0
-846 -834 -84 0
-847 -835 -82 0
-848 -836 -83 0
-849 -837 -84 0
-850 -838 -82 0
-851 -839 -83 0
-852 -840 -84 0
-853 -841 -82 0
-854 -842 -83 0
-855 -843 -84 0
-856 -844 -82 0
-857 -845 -83 0
-858 -846 -84 0
-859 -847 -82 0
-860 -848 -83 0
-861 -849 -84 0
-862 -850 -82 0
-863 -851 -83 0
-864 -852 -84 0
-865 -853 -82 0
-866 -854 -83 0
-867 -855 -84 0
-868 -856 -82 0
-869 -857 -83 0
-870 -858 -84 0
-871 -859 -82 0
-872 -860 -83 0
-873 -861 -84 0
-874 -862 -82 0
-875 -863 -83 0
-876 -864 -84 0
-877 -865 -82 0
-878 -866 -83 0
-879 -867 -84 0
-880 -868 -82 0
-881 -869 -83 0
-882 -870 -84 0
-883 -871 -82 0
-884 -872 -83 0
-885 -873 -84 0
-886 -874 -82 0
-887 -875 -83 0
-888 -876 -84 0
-889 -877 -82 0
-890 -878 -83 0
-891 -879 -84 0
-892 -880 -82 0
-893 -881 -83 0
-894 -882 -84 0
-895 -883 -82 0
-896 -884 -83 0
-897 -885 -84 0
-898 -886 -82 0
-899 -887 -83 0
-900 -888 -84 0
-901 -889 -82 0
-902 -890 -83 0
-903 -891 -84 0
-904 -892 -82 0
-905 -893 -83 0
-906 -894 -84 0
-907 -895 -82 0
-908 -896 -83 0
-909 -897 -84 0
-910 -898 -82 0
-911 -899 -83 0
-912 -900 -84 0
-913 -901 -82 0
-914 -902 -83 0
-915 -903 -84 0
-916 -904 -82 0
-917 -905 -83 0
-918 -906 -84 0
-919 -907 -82 0
-920 -908 -83 0
-921 -909 -84 0
-922 -910 -82 0
-923 -911 -83 0
-924 -912 -84 0
-925 -913 -82 0
-926 -914 -83 0
-927 -915 -84 0
-928 -916 -82 0
-929 -917 -83 0
-930 -918 -84 0
-931 -919 -82 0
-932 -920 -83 0
-933 -921 -84 0
-934 -922 -82 0
-935 -923 -83 0
-936 -924 -84 0
-937 -925 -82 0
-938 -926 -83 0
-939 -927 -84 0
-940 -928 -82 0
-941 -929 -83 0
-942 -930 -84 0
-943 -931 -82 0
-944 -932 -83 0
-945 -933 -84 0
-946 -934 -82 0
-947 -935 -83 0
-948 -936 -84 0
-949 -937 -82 0
-950 -938 -83 0
-951 -939 -84 0
-952 -940 -82 0
-953 -941 -83 0
-954 -942 -84 0
-955 -943 -82 0
-956 -944 -83 0
-957 -945 -84 0
-958 -946 -82 0
-959 -947 -83 0
-960 -948 -84 0
-961 -949 -82 0
-962 -950 -83 0
-963 -951 -84 0
-964 -952 -82 0
-965 -953 -83 0
-966 -954 -84 0
-967 -955 -82 0
-968 -956 -83 0
-969 -957 -84 0
-970 -958 -82 0
-971 -959 -83 0
-972 -960 -84 0
-973 -961 -82 0
-974 -962 -83 0
-975 -963 -84 0
-976 -964 -82 0
-977 -965 -83 0
-978 -966 -84 0
-979 -967 -82 0
-980 -968 -83 0
-981 -969 -84 0
-982 -970 -82 0
-983 -971 -83 0
-984 -972 -84 0
-985 -973 -82 0
-986 -974 -83 0
-987 -975 -84 0
-988 -976 -82 0
-989 -977 -83 0
-990 -978 -84 0
-991 -979 -82 0
-992 -980 -83 0
-993 -981 -84 0
-994 -982 -82 0
-995 -983 -83 0
-996 -984 -84 0
-997 -985 -82 0
-998 -986 -83 0
-999 -987 -84 0
-1000 -988 -82 0
-1001 -989 -83 0
-1002 -990 -84 0
-1003 -991 -82 0
-1004 -992 -83 0
-1005 -993 -84 0
-1006 -994 -82 0
-1007 -995 -83 0
-1008 -996 -84 0
-1009 -997 -82 0
-1010 -998 -83 0
-1011 -999 -84 0
-1012 -1000 -82 0
-1013 -1001 -83 0
-1014 -1002 -84 0
-1015 -1003 -82 0
-1016 -1004 -83 0
-1017 -1005 -84 0
-1018 -1006 -82 0
-1019 -1007 -83 0
-1020 -1008 -84 0
-1021 -1009 -82 0
-1022 -1010 -83 0
-1023 -1011 -84 0
-1024 -1012 -82 0
-1025 -1013 -83 0
-1026 -1014 -84 0
-1027 -1015 -82 0
-1028 -1016 -83 0
-1029 -1017 -84 0
-103 -16 -1 0
-104 -17 -2 0
-105 -18 -3 0
-103 -19 -4 0
-104 -20 -5 0
-105 -21 -6 0
-103 -22 -7 0
-104 -23 -8 0
-105 -24 -9 0
-103 -25 -10 0
-104 -26 -11 0
-105 -27 -12 0
-103 -28 -13 0
-104 -29 -14 0
-105 -30 -15 0
-103 -31 -16 0
-104 -32 -17 0
-105 -33 -18 0
-103 -34 -19 0
-104 -35 -20 0
-105 -36 -21 0
-103 -37 -22 0
-104 -38 -23 0
-105 -39 -24 0
-103 -40 -25 0
-104 -41 -26 0
-105 -42 -27 0
-103 -43 -28 0
-104 -44 -29 0
-105 -45 -30 0
-103 -46 -31 0
-104 -47 -32 0
-105 -48 -33 0
-103 -49 -34 0
-104 -50 -35 0
-105 -51 -36 0
-103 -52 -37 0
-104 -53 -38 0
-105 -54 -39 0
-103 -55 -40 0
-104 -56 -41 0
-105 -57 -42 0
-103 -58 -43 0
-104 -59 -44 0
-105 -60 -45 0
-103 -61 -46 0
-104 -62 -47 0
-105 -63 -48 0
-103 -64 -49 0
-104 -65 -50 0
-105 -66 -51 0
-103 -67 -52 0
-104 -68 -53 0
-105 -69 -54 0
-103 -70 -55 0
-104 -71 -56 0
-105 -72 -57 0
-103 -73 -58 0
-104 -74 -59 0
-105 -75 -60 0
-103 -76 -61 0
-104 -77 -62 0
-105 -78 -63 0
-103 -79 -64 0
-104 -80 -65 0
-105 -81 -66 0
-103 -82 -67 0
-104 -83 -68 0
-105 -84 -69 0
-103 -85 -70 0
-104 -86 -71 0
-105 -87 -72 0
-103 -88 -73 0
-104 -89 -74 0
-105 -90 -75 0
-103 -91 -76 0
-104 -92 -77 0
-105 -93 -78 0
-103 -94 -79 0
-104 -95 -80 0
-105 -96 -81 0
-103 -97 -82 0
-104 -98 -83 0
-105 -99 -84 0
-103 -100 -85 0
-104 -101 -86 0
-105 -102 -87 0
-103 -88 0
-104 -89 0
-105 -90 0
-106 -103 -91 0
-107 -104 -92 0
-108 -105 -93 0
-109 -103 -94 0
-110 -104 -95 0
-111 -105 -96 0
-112 -103 -97 0
-113 -104 -98 0
-114 -105 -99 0
-115 -103 -100 0
-116 -104 -101 0
-117 -105 -102 0
-118 -103 0
-119 -104 0
-120 -105 0
-121 -106 -103 0
-122 -107 -104 0
-123 -108 -105 0
-124 -109 -103 0
-125 -110 -104 0
-126 -111 -105 0
-127 -112 -103 0
-128 -113 -104 0
-129 -114 -105 0
-130 -115 -103 0
-131 -116 -104 0
-132 -117 -105 0
-133 -118 -103 0
-134 -119 -104 0
-135 -120 -105 0
-136 -121 -103 0
-137 -122 -104 0
-138 -123 -105 0
-139 -124 -103 0
-140 -125 -104 0
-141 -126 -105 0
-142 -127 -103 0
-143 -128 -104 0
-144 -129 -105 0
-145 -130 -103 0
-146 -131 -104 0
-147 -132 -105 0
-148 -133 -103 0
-149 -134 -104 0
-150 -135 -105 0
-151 -136 -103 0
-152 -137 -104 0
-153 -138 -105 0
-154 -139 -103 0
-155 -140 -104 0
-156 -141 -105 0
-157 -142 -103 0
-158 -143 -104 0
-159 -144 -105 0
-160 -145 -103 0
-161 -146 -104 0
-162 -147 -105 0
-163 -148 -103 0
-164 -149 -104 0
-165 -150 -105 0
-166 -151 -103 0
-167 -152 -104 0
-168 -153 -105 0
-169 -154 -103 0
-170 -155 -104 0
-171 -156 -105 0
-172 -157 -103 0
-173 -158 -104 0
-174 -159 -105 0
-175 -160 -103 0
-176 -161 -104 0
-177 -162 -105 0
-178 -163 -103 0
-179 -164 -104 0
-180 -165 -105 0
-181 -166 -103 0
-182 -167 -104 0
-183 -168 -105 0
-184 -169 -103 0
-185 -170 -104 0
-186 -171 -105 0
-187 -172 -103 0
-188 -173 -104 0
-189 -174 -105 0
-190 -175 -103 0
-191 -176 -104 0
-192 -177 -105 0
-193 -178 -103 0
-194 -179 -104 0
-195 -180 -105 0
-196 -181 -103 0
-197 -182 -104 0
-198 -183 -105 0
-199 -184 -103 0
-200 -185 -104 0
-201 -186 -105 0
-202 -187 -103 0
-203 -188 -104 0
-204 -189 -105 0
-205 -190 -103 0
-206 -191 -104 0
-207 -192 -105 0
-208 -193 -103 0
-209 -194 -104 0
-210 -195 -105 0
-211 -196 -103 0
-212 -197 -104 0
-213 -198 -105 0
-214 -199 -103 0
-215 -200 -104 0
-216 -201 -105 0
-217 -202 -103 0
-218 -203 -104 0
-219 -204 -105 0
-220 -205 -103 0
-221 -206 -104 0
-222 -207 -105 0
-223 -208 -103 0
-224 -209 -104 0
-225 -210 -105 0
-226 -211 -103 0
-227 -212 -104 0
-228 -213 -105 0
-229 -214 -103 0
-230 -215 -104 0
-231 -216 -105 0
-232 -217 -103 0
-233 -218 -104 0
-234 -219 -105 0
-235 -220 -103 0
-236 -221 -104 0
-237 -222 -105 0
-238 -223 -103 0
-239 -224 -104 0
-240 -225 -105 0
-241 -226 -103 0
-242 -227 -104 0
-243 -228 -105 0
-244 -229 -103 0
-245 -230 -104 0
-246 -231 -105 0
-247 -232 -103 0
-248 -233 -104 0
-249 -234 -105 0
-250 -235 -103 0
-251 -236 -104 0
-252 -237 -105 0
-253 -238 -103 0
-254 -239 -104 0
-255 -240 -105 0
-256 -241 -103 0
-257 -242 -104 0
-258 -243 -105 0
-259 -244 -103 0
-260 -245 -104 0
-261 -246 -105 0
-262 -247 -103 0
-263 -248 -104 0
-264 -249 -105 0
-265 -250 -103 0
-266 -251 -104 0
-267 -252 -105 0
-268 -253 -103 0
-269 -254 -104 0
-270 -255 -105 0
-271 -256 -103 0
-272 -257 -104 0
-273 -258 -105 0
-274 -259 -103 0
-275 -260 -104 0
-276 -261 -105 0
-277 -262 -103 0
-278 -263 -104 0
-279 -264 -105 0
-280 -265 -103 0
-281 -266 -104 0
-282 -267 -105 0
-283 -268 -103 0
-284 -269 -104 0
-285 -270 -105 0
-286 -271 -103 0
-287 -272 -104 0
-288 -273 -105 0
-289 -274 -103 0
-290 -275 -104 0
-291 -276 -105 0
-292 -277 -103 0
-293 -278 -104 0
-294 -279 -105 0
-295 -280 -103 0
-296 -281 -104 0
-297 -282 -105 0
-298 -283 -103 0
-299 -284 -104 0
-300 -285 -105 0
-301 -286 -103 0
-302 -287 -104 0
-303 -288 -105 0
-304 -289 -103 0
-305 -290 -104 0
-306 -291 -105 0
-307 -292 -103 0
-308 -293 -104 0
-309 -294 -105 0
-310 -295 -103 0
-311 -296 -104 0
-312 -297 -105 0
-313 -298 -103 0
-314 -299 -104 0
-315 -300 -105 0
-316 -301 -103 0
-317 -302 -104 0
-318 -303 -105 0
-319 -304 -103 0
-320 -305 -104 0
-321 -306 -105 0
-322 -307 -103 0
-323 -308 -104 0
-324 -309 -105 0
-325 -310 -103 0
-326 -311 -104 0
-327 -312 -105 0
-328 -313 -103 0
-329 -314 -104 0
-330 -315 -105 0
-331 -316 -103 0
-332 -317 -104 0
-333 -318 -105 0
-334 -319 -103 0
-335 -320 -104 0
-336 -321 -105 0
-337 -322 -103 0
-338 -323 -104 0
-339 -324 -105 0
-340 -325 -103 0
-341 -326 -104 0
-342 -327 -105 0
-343 -328 -103 0
-344 -329 -104 0
-345 -330 -105 0
-346 -331 -103 0
-347 -332 -104 0
-348 -333 -105 0
-349 -334 -103 0
-350 -335 -104 0
-351 -336 -105 0
-352 -337 -103 0
-353 -338 -104 0
-354 -339 -105 0
-355 -340 -103 0
-356 -341 -104 0
-357 -342 -105 0
-358 -343 -103 0
-359 -344 -104 0
-360 -345 -105 0
-361 -346 -103 0
-362 -347 -104 0
-363 -348 -105 0
-364 -349 -103 0
-365 -350 -104 0
-366 -351 -105 0
-367 -352 -103 0
-368 -353 -104 0
-369 -354 -105 0
-370 -355 -103 0
-371 -356 -104 0
-372 -357 -105 0
-373 -358 -103 0
-374 -359 -104 0
-375 -360 -105 0
-376 -361 -103 0
-377 -362 -104 0
-378 -363 -105 0
-379 -364 -103 0
-380 -365 -104 0
-381 -366 -105 0
-382 -367 -103 0
-383 -368 -104 0
-384 -369 -105 0
-385 -370 -103 0
-386 -371 -104 0
-387 -372 -105 0
-388 -373 -103 0
-389 -374 -104 0
-390 -375 -105 0
-391 -376 -103 0
-392 -377 -104 0
-393 -378 -105 0
-394 -379 -103 0
-395 -380 -104 0
-396 -381 -105 0
-397 -382 -103 0
-398 -383 -104 0
-399 -384 -105 0
-400 -385 -103 0
-401 -386 -104 0
-402 -387 -105 0
-403 -388 -103 0
-404 -389 -104 0
-405 -390 -105 0
-406 -391 -103 0
-407 -392 -104 0
-408 -393 -105 0
-409 -394 -103 0
-410 -395 -104 0
-411 -396 -105 0
-412 -397 -103 0
-413 -398 -104 0
-414 -399 -105 0
-415 -400 -103 0
-416 -401 -104 0
-417 -402 -105 0
-418 -403 -103 0
-419 -404 -104 0
-420 -405 -105 0
-421 -406 -103 0
-422 -407 -104 0
-423 -408 -105 0
-424 -409 -103 0
-425 -410 -104 0
-426 -411 -105 0
-427 -412 -103 0
-428 -413 -104 0
-429 -414 -105 0
-430 -415 -103 0
-431 -416 -104 0
-432 -417 -105 0
-433 -418 -103 0
-434 -419 -104 0
-435 -420 -105 0
-436 -421 -103 0
-437 -422 -104 0
-438 -423 -105 0
-439 -424 -103 0
-440 -425 -104 0
-441 -426 -105 0
-442 -427 -103 0
-443 -428 -104 0
-444 -429 -105 0
-445 -430 -103 0
-446 -431 -104 0
-447 -432 -105 0
-448 -433 -103 0
-449 -434 -104 0
-450 -435 -105 0
-451 -436 -103 0
-452 -437 -104 0
-453 -438 -105 0
-454 -439 -103 0
-455 -440 -104 0
-456 -441 -105 0
-457 -442 -103 0
-458 -443 -104 0
-459 -444 -105 0
-460 -445 -103 0
-461 -446 -104 0
-462 -447 -105 0
-463 -448 -103 0
-464 -449 -104 0
-465 -450 -105 0
-466 -451 -103 0
-467 -452 -104 0
-468 -453 -105 0
-469 -454 -103 0
-470 -455 -104 0
-471 -456 -105 0
-472 -457 -103 0
-473 -458 -104 0
-474 -459 -105 0
-475 -460 -103 0
-476 -461 -104 0
-477 -462 -105 0
-478 -463 -103 0
-479 -464 -104 0
-480 -465 -105 0
-481 -466 -103 0
-482 -467 -104 0
-483 -468 -105 0
-484 -469 -103 0
-485 -470 -104 0
-486 -471 -105 0
-487 -472 -103 0
-488 -473 -104 0
-489 -474 -105 0
-490 -475 -103 0
-491 -476 -104 0
-492 -477 -105 0
-493 -478 -103 0
-494 -479 -104 0
-495 -480 -105 0
-496 -481 -103 0
-497 -482 -104 0
-498 -483 -105 0
-499 -484 -103 0
-500 -485 -104 0
-501 -486 -105 0
-502 -487 -103 0
-503 -488 -104 0
-504 -489 -105 0
-505 -490 -103 0
-506 -491 -104 0
-507 -492 -105 0
-508 -493 -103 0
-509 -494 -104 0
-510 -495 -105 0
-511 -496 -103 0
-512 -497 -104 0
-513 -498 -105 0
-514 -499 -103 0
-515 -500 -104 0
-516 -501 -105 0
-517 -502 -103 0
-518 -503 -104 0
-519 -504 -105 0
-520 -505 -103 0
-521 -506 -104 0
-522 -507 -105 0
-523 -508 -103 0
-524 -509 -104 0
-525 -510 -105 0
-526 -511 -103 0
-527 -512 -104 0
-528 -513 -105 0
-529 -514 -103 0
-530 -515 -104 0
-531 -516 -105 0
-532 -517 -103 0
-533 -518 -104 0
-534 -519 -105 0
-535 -520 -103 0
-536 -521 -104 0
-537 -522 -105 0
-538 -523 -103 0
-539 -524 -104 0
-540 -525 -105 0
-541 -526 -103 0
-542 -527 -104 0
-543 -528 -105 0
-544 -529 -103 0
-545 -530 -104 0
-546 -531 -105 0
-547 -532 -103 0
-548 -533 -104 0
-549 -534 -105 0
-550 -535 -103 0
-551 -536 -104 0
-552 -537 -105 0
-553 -538 -103 0
-554 -539 -104 0
-555 -540 -105 0
-556 -541 -103 0
-557 -542 -104 0
-558 -543 -105 0
-559 -544 -103 0
-560 -545 -104 0
-561 -546 -105 0
-562 -547 -103 0
-563 -548 -104 0
-564 -549 -105 0
-565 -550 -103 0
-566 -551 -104 0
-567 -552 -105 0
-568 -553 -103 0
-569 -554 -104 0
-570 -555 -105 0
-571 -556 -103 0
-572 -557 -104 0
-573 -558 -105 0
-574 -559 -103 0
-575 -560 -104 0
-576 -561 -105 0
-577 -562 -103 0
-578 -563 -104 0
-579 -564 -105 0
-580 -565 -103 0
-581 -566 -104 0
-582 -567 -105 0
-583 -568 -103 0
-584 -569 -104 0
-585 -570 -105 0
-586 -571 -103 0
-587 -572 -104 0
-588 -573 -105 0
-589 -574 -103 0
-590 -575 -104 0
-591 -576 -105 0
-592 -577 -103 0
-593 -578 -104 0
-594 -579 -105 0
-595 -580 -103 0
-596 -581 -104 0
-597 -582 -105 0
-598 -583 -103 0
-599 -584 -104 0
-600 -585 -105 0
-601 -586 -103 0
-602 -587 -104 0
-603 -588 -105 0
-604 -589 -103 0
-605 -590 -104 0
-606 -591 -105 0
-607 -592 -103 0
-608 -593 -104 0
-609 -594 -105 0
-610 -595 -103 0
-611 -596 -104 0
-612 -597 -105 0
-613 -598 -103 0
-614 -599 -104 0
-615 -600 -105 0
-616 -601 -103 0
-617 -602 -104 0
-618 -603 -105 0
-619 -604 -103 0
-620 -605 -104 0
-621 -606 -105 0
-622 -607 -103 0
-623 -608 -104 0
-624 -609 -105 0
-625 -610 -103 0
-626 -611 -104 0
-627 -612 -105 0
-628 -613 -103 0
-629 -614 -104 0
-630 -615 -105 0
-631 -616 -103 0
-632 -617 -104 0
-633 -618 -105 0
-634 -619 -103 0
-635 -620 -104 0
-636 -621 -105 0
-637 -622 -103 0
-638 -623 -104 0
-639 -624 -105 0
-640 -625 -103 0
-641 -626 -104 0
-642 -627 -105 0
-643 -628 -103 0
-644 -629 -104 0
-645 -630 -105 0
-646 -631 -103 0
-647 -632 -104 0
-648 -633 -105 0
-649 -634 -103 0
-650 -635 -104 0
-651 -636 -105 0
-652 -637 -103 0
-653 -638 -104 0
-654 -639 -105 0
-655 -640 -103 0
-656 -641 -104 0
-657 -642 -105 0
-658 -643 -103 0
-659 -644 -104 0
-660 -645 -105 0
-661 -646 -103 0
-662 -647 -104 0
-663 -648 -105 0
-664 -649 -103 0
-665 -650 -104 0
-666 -651 -105 0
-667 -652 -103 0
-668 -653 -104 0
-669 -654 -105 0
-670 -655 -103 0
-671 -656 -104 0
-672 -657 -105 0
-673 -658 -103 0
-674 -659 -104 0
-675 -660 -105 0
-676 -661 -103 0
-677 -662 -104 0
-678 -663 -105 0
-679 -664 -103 0
-680 -665 -104 0
-681 -666 -105 0
-682 -667 -103 0
-683 -668 -104 0
-684 -669 -105 0
-685 -670 -103 0
-686 -671 -104 0
-687 -672 -105 0
-688 -673 -103 0
-689 -674 -104 0
-690 -675 -105 0
-691 -676 -103 0
-692 -677 -104 0
-693 -678 -105 0
-694 -679 -103 0
-695 -680 -104 0
-696 -681 -105 0
-697 -682 -103 0
-698 -683 -104 0
-699 -684 -105 0
-700 -685 -103 0
-701 -686 -104 0
-702 -687 -105 0
-703 -688 -103 0
-704 -689 -104 0
-705 -690 -105 0
-706 -691 -103 0
-707 -692 -104 0
-708 -693 -105 0
-709 -694 -103 0
-710 -695 -104 0
-711 -696 -105 0
-712 -697 -103 0
-713 -698 -104 0
-714 -699 -105 0
-715 -700 -103 0
-716 -701 -104 0
-717 -702 -105 0
-718 -703 -103 0
-719 -704 -104 0
-720 -705 -105 0
-721 -706 -103 0
-722 -707 -104 0
-723 -708 -105 0
-724 -709 -103 0
-725 -710 -104 0
-726 -711 -105 0
-727 -712 -103 0
-728 -713 -104 0
-729 -714 -105 0
-730 -715 -103 0
-731 -716 -104 0
-732 -717 -105 0
-733 -718 -103 0
-734 -719 -104 0
-735 -720 -105 0
-736 -721 -103 0
-737 -722 -104 0
-738 -723 -105 0
-739 -724 -103 0
-740 -725 -104 0
-741 -726 -105 0
-742 -727 -103 0
-743 -728 -104 0
-744 -729 -105 0
-745 -730 -103 0
-746 -731 -104 0
-747 -732 -105 0
-748 -733 -103 0
-749 -734 -104 0
-750 -735 -105 0
-751 -736 -103 0
-752 -737 -104 0
-753 -738 -105 0
-754 -739 -103 0
-755 -740 -104 0
-756 -741 -105 0
-757 -742 -103 0
-758 -743 -104 0
-759 -744 -105 0
-760 -745 -103 0
-761 -746 -104 0
-762 -747 -105 0
-763 -748 -103 0
-764 -749 -104 0
-765 -750 -105 0
-766 -751 -103 0
-767 -752 -104 0
-768 -753 -105 0
-769 -754 -103 0
-770 -755 -104 0
-771 -756 -105 0
-772 -757 -103 0
-773 -758 -104 0
-774 -759 -105 0
-775 -760 -103 0
-776 -761 -104 0
-777 -762 -105 0
-778 -763 -103 0
-779 -764 -104 0
-780 -765 -105 0
-781 -766 -103 0
-782 -767 -104 0
-783 -768 -105 0
-784 -769 -103 0
-785 -770 -104 0
-786 -771 -105 0
-787 -772 -103 0
-788 -773 -104 0
-789 -774 -105 0
-790 -775 -103 0
-791 -776 -104 0
-792 -777 -105 0
-793 -778 -103 0
-794 -779 -104 0
-795 -780 -105 0
-796 -781 -103 0
-797 -782 -104 0
-798 -783 -105 0
-799 -784 -103 0
-800 -785 -104 0
-801 -786 -105 0
-802 -787 -103 0
-803 -788 -104 0
-804 -789 -105 0
-805 -790 -103 0
-806 -791 -104 0
-807 -792 -105 0
-808 -793 -103 0
-809 -794 -104 0
-810 -795 -105 0
-811 -796 -103 0
-812 -797 -104 0
-813 -798 -105 0
-814 -799 -103 0
-815 -800 -104 0
-816 -801 -105 0
-817 -802 -103 0
-818 -803 -104 0
-819 -804 -105 0
-820 -805 -103 0
-821 -806 -104 0
-822 -807 -105 0
-823 -808 -103 0
-824 -809 -104 0
-825 -810 -105 0
-826 -811 -103 0
-827 -812 -104 0
-828 -813 -105 0
-829 -814 -103 0
-830 -815 -104 0
-831 -816 -105 0
-832 -817 -103 0
-833 -818 -104 0
-834 -819 -105 0
-835 -820 -103 0
-836 -821 -104 0
-837 -822 -105 0
-838 -823 -103 0
-839 -824 -104 0
-840 -825 -105 0
-841 -826 -103 0
-842 -827 -104 0
-843 -828 -105 0
-844 -829 -103 0
-845 -830 -104 0
-846 -831 -105 0
-847 -832 -103 0
-848 -833 -104 0
-849 -834 -105 0
-850 -835 -103 0
-851 -836 -104 0
-852 -837 -105 0
-853 -838 -103 0
-854 -839 -104 0
-855 -840 -105 0
-856 -841 -103 0
-857 -842 -104 0
-858 -843 -105 0
-859 -844 -103 0
-860 -845 -104 0
-861 -846 -105 0
-862 -847 -103 0
-863 -848 -104 0
-864 -849 -105 0
-865 -850 -103 0
-866 -851 -104 0
-867 -852 -105 0
-868 -853 -103 0
-869 -854 -104 0
-870 -855 -105 0
-871 -856 -103 0
-872 -857 -104 0
-873 -858 -105 0
-874 -859 -103 0
-875 -860 -104 0
-876 -861 -105 0
-877 -862 -103 0
-878 -863 -104 0
-879 -864 -105 0
-880 -865 -103 0
-881 -866 -104 0
-882 -867 -105 0
-883 -868 -103 0
-884 -869 -104 0
-885 -870 -105 0
-886 -871 -103 0
-887 -872 -104 0
-888 -873 -105 0
-889 -874 -103 0
-890 -875 -104 0
-891 -876 -105 0
-892 -877 -103 0
-893 -878 -104 0
-894 -879 -105 0
-895 -880 -103 0
-896 -881 -104 0
-897 -882 -105 0
-898 -883 -103 0
-899 -884 -104 0
-900 -885 -105 0
-901 -886 -103 0
-902 -887 -104 0
-903 -888 -105 0
-904 -889 -103 0
-905 -890 -104 0
-906 -891 -105 0
-907 -892 -103 0
-908 -893 -104 0
-909 -894 -105 0
-910 -895 -103 0
-911 -896 -104 0
-912 -897 -105 0
-913 -898 -103 0
-914 -899 -104 0
-915 -900 -105 0
-916 -901 -103 0
-917 -902 -104 0
-918 -903 -105 0
-919 -904 -103 0
-920 -905 -104 0
-921 -906 -105 0
-922 -907 -103 0
-923 -908 -104 0
-924 -909 -105 0
-925 -910 -103 0
-926 -911 -104 0
-927 -912 -105 0
-928 -913 -103 0
-929 -914 -104 0
-930 -915 -105 0
-931 -916 -103 0
-932 -917 -104 0
-933 -918 -105 0
-934 -919 -103 0
-935 -920 -104 0
-936 -921 -105 0
-937 -922 -103 0
-938 -923 -104 0
-939 -924 -105 0
-940 -925 -103 0
-941 -926 -104 0
-942 -927 -105 0
-943 -928 -103 0
-944 -929 -104 0
-945 -930 -105 0
-946 -931 -103 0
-947 -932 -104 0
-948 -933 -105 0
-949 -934 -103 0
-950 -935 -104 0
-951 -936 -105 0
-952 -937 -103 0
-953 -938 -104 0
-954 -939 -105 0
-955 -940 -103 0
-956 -941 -104 0
-957 -942 -105 0
-958 -943 -103 0
-959 -944 -104 0
-960 -945 -105 0
-961 -946 -103 0
-962 -947 -104 0
-963 -948 -105 0
-964 -949 -103 0
-965 -950 -104 0
-966 -951 -105 0
-967 -952 -103 0
-968 -953 -104 0
-969 -954 -105 0
-970 -955 -103 0
-971 -956 -104 0
-972 -957 -105 0
-973 -958 -103 0
-974 -959 -104 0
-975 -960 -105 0
-976 -961 -103 0
-977 -962 -104 0
-978 -963 -105 0
-979 -964 -103 0
-980 -965 -104 0
-981 -966 -105 0
-982 -967 -103 0
-983 -968 -104 0
-984 -969 -105 0
-985 -970 -103 0
-986 -971 -104 0
-987 -972 -105 0
-988 -973 -103 0
-989 -974 -104 0
-990 -975 -105 0
-991 -976 -103 0
-992 -977 -104 0
-993 -978 -105 0
-994 -979 -103 0
-995 -980 -104 0
-996 -981 -105 0
-997 -982 -103 0
-998 -983 -104 0
-999 -984 -105 0
-1000 -985 -103 0
-1001 -986 -104 0
-1002 -987 -105 0
-1003 -988 -103 0
-1004 -989 -104 0
-1005 -990 -105 0
-1006 -991 -103 0
-1007 -992 -104 0
-1008 -993 -105 0
-1009 -994 -103 0
-1010 -995 -104 0
-1011 -996 -105 0
-1012 -997 -103 0
-1013 -998 -104 0
-1014 -999 -105 0
-1015 -1000 -103 0
-1016 -1001 -104 0
-1017 -1002 -105 0
-1018 -1003 -103 0
-1019 -1004 -104 0
-1020 -1005 -105 0
-1021 -1006 -103 0
-1022 -1007 -104 0
-1023 -1008 -105 0
-1024 -1009 -103 0
-1025 -1010 -104 0
-1026 -1011 -105 0
-1027 -1012 -103 0
-1028 -1013 -104 0
-1029 -1014 -105 0
-124 -19 -1 0
-125 -20 -2 0
-126 -21 -3 0
-124 -22 -4 0
-125 -23 -5 0
-126 -24 -6 0
-124 -25 -7 0
-125 -26 -8 0
-126 -27 -9 0
-124 -28 -10 0
-125 -29 -11 0
-126 -30 -12 0
-124 -31 -13 0
-125 -32 -14 0
-126 -33 -15 0
-124 -34 -16 0
-125 -35 -17 0
-126 -36 -18 0
-124 -37 -19 0
-125 -38 -20 0
-126 -39 -21 0
-124 -40 -22 0
-125 -41 -23 0
-126 -42 -24 0
-124 -43 -25 0
-125 -44 -26 0
-126 -45 -27 0
-124 -46 -28 0
-125 -47 -29 0
-126 -48 -30 0
-124 -49 -31 0
-125 -50 -32 0
-126 -51 -33 0
-124 -52 -34 0
-125 -53 -35 0
-126 -54 -36 0
-124 -55 -37 0
-125 -56 -38 0
-126 -57 -39 0
-124 -58 -40 0
-125 -59 -41 0
-126 -60 -42 0
-124 -61 -43 0
-125 -62 -44 0
-126 -63 -45 0
-124 -64 -46 0
-125 -65 -47 0
-126 -66 -48 0
-124 -67 -49 0
-125 -68 -50 0
-126 -69 -51 0
-124 -70 -52 0
-125 -71 -53 0
-126 -72 -54 0
-124 -73 -55 0
-125 -74 -56 0
-126 -75 -57 0
-124 -76 -58 0
-125 -77 -59 0
-126 -78 -60 0
-124 -79 -61 0
-125 -80 -62 0
-126 -81 -63 0
-124 -82 -64 0
-125 -83 -65 0
-126 -84 -66 0
-124 -85 -67 0
-125 -86 -68 0
-126 -87 -69 0
-124 -88 -70 0
-125 -89 -71 0
-126 -90 -72 0
-124 -91 -73 0
-125 -92 -74 0
-126 -93 -75 0
-124 -94 -76 0
-125 -95 -77 0
-126 -96 -78 0
-124 -97 -79 0
-125 -98 -80 0
-126 -99 -81 0
-124 -100 -82 0
-125 -101 -83 0
-126 -102 -84 0
-124 -103 -85 0
-125 -104 -86 0
-126 -105 -87 0
-124 -106 -88 0
-125 -107 -89 0
-126 -108 -90 0
-124 -109 -91 0
-125 -110 -92 0
-126 -111 -93 0
-124 -112 -94 0
-125 -113 -95 0
-126 -114 -96 0
-124 -115 -97 0
-125 -116 -98 0
-126 -117 -99 0
-124 -118 -100 0
-125 -119 -101 0
-126 -120 -102 0
-124 -121 -103 0
-125 -122 -104 0
-126 -123 -105 0
-124 -106 0
-125 -107 0
-126 -108 0
-127 -124 -109 0
-128 -125 -110 0
-129 -126 -111 0
-130 -124 -112 0
-131 -125 -113 0
-132 -126 -114 0
-133 -124 -115 0
-134 -125 -116 0
-135 -126 -117 0
-136 -124 -118 0
-137 -125 -119 0
-138 -126 -120 0
-139 -124 -121 0
-140 -125 -122 0
-141 -126 -123 0
-142 -124 0
-143 -125 0
-144 -126 0
-145 -127 -124 0
-146 -128 -125 0
-147 -129 -126 0
-148 -130 -124 0
-149 -131 -125 0
-150 -132 -126 0
-151 -133 -124 0
-152 -134 -125 0
-153 -135 -126 0
-154 -136 -124 0
-155 -137 -125 0
-156 -138 -126 0
-157 -139 -124 0
-158 -140 -125 0
-159 -141 -126 0
-160 -142 -124 0
-161 -143 -125 0
-162 -144 -126 0
-163 -145 -124 0
-164 -146 -125 0
-165 -147 -126 0
-166 -148 -124 0
-167 -149 -125 0
-168 -150 -126 0
-169 -151 -124 0
-170 -152 -125 0
-171 -153 -126 0
-172 -154 -124 0
-173 -155 -125 0
-174 -156 -126 0
-175 -157 -124 0
-176 -158 -125 0
-177 -159 -126 0
-178 -160 -124 0
-179 -161 -125 0
-180 -162 -126 0
-181 -163 -124 0
-182 -164 -125 0
-183 -165 -126 0
-184 -166 -124 0
-185 -167 -125 0
-186 -168 -126 0
-187 -169 -124 0
-188 -170 -125 0
-189 -171 -126 0
-190 -172 -124 0
-191 -173 -125 0
-192 -174 -126 0
-193 -175 -124 0
-194 -176 -125 0
-195 -177 -126 0
-196 -178 -124 0
-197 -179 -125 0
-198 -180 -126 0
-199 -181 -124 0
-200 -182 -125 0
-201 -183 -126 0
-202 -184 -124 0
-203 -185 -125 0
-204 -186 -126 0
-205 -187 -124 0
-206 -188 -125 0
-207 -189 -126 0
-208 -190 -124 0
-209 -191 -125 0
-210 -192 -126 0
-211 -193 -124 0
-212 -194 -125 0
-213 -195 -126 0
-214 -196 -124 0
-215 -197 -125 0
-216 -198 -126 0
-217 -199 -124 0
-218 -200 -125 0
-219 -201 -126 0
-220 -202 -124 0
-221 -203 -125 0
-222 -204 -126 0
-223 -205 -124 0
-224 -206 -125 0
-225 -207 -126 0
-226 -208 -124 0
-227 -209 -125 0
-228 -210 -126 0
-229 -211 -124 0
-230 -212 -125 0
-231 -213 -126 0
-232 -214 -124 0
-233 -215 -125 0
-234 -216 -126 0
-235 -217 -124 0
-236 -218 -125 0
-237 -219 -126 0
-238 -220 -124 0
-239 -221 -125 0
-240 -222 -126 0
-241 -223 -124 0
-242 -224 -125 0
-243 -225 -126 0
-244 -226 -124 0
-245 -227 -125 0
-246 -228 -126 0
-247 -229 -124 0
-248 -230 -125 0
-249 -231 -126 0
-250 -232 -124 0
-251 -233 -125 0
-252 -234 -126 0
-253 -235 -124 0
-254 -236 -125 0
-255 -237 -126 0
-256 -238 -124 0
-257 -239 -125 0
-258 -240 -126 0
-259 -241 -124 0
-260 -242 -125 0
-261 -243 -126 0
-262 -244 -124 0
-263 -245 -125 0
-264 -246 -126 0
-265 -247 -124 0
-266 -248 -125 0
-267 -249 -126 0
-268 -250 -124 0
-269 -251 -125 0
-270 -252 -126 0
-271 -253 -124 0
-272 -254 -125 0
-273 -255 -126 0
-274 -256 -124 0
-275 -257 -125 0
-276 -258 -126 0
-277 -259 -124 0
-278 -260 -125 0
-279 -261 -126 0
-280 -262 -124 0
-281 -263 -125 0
-282 -264 -126 0
-283 -265 -124 0
-284 -266 -125 0
-285 -267 -126 0
-286 -268 -124 0
-287 -269 -125 0
-288 -270 -126 0
-289 -271 -124 0
-290 -272 -125 0
-291 -273 -126 0
-292 -274 -124 0
-293 -275 -125 0
-294 -276 -126 0
-295 -277 -124 0
-296 -278 -125 0
-297 -279 -126 0
-298 -280 -124 0
-299 -281 -125 0
-300 -282 -126 0
-301 -283 -124 0
-302 -284 -125 0
-303 -285 -126 0
-304 -286 -124 0
-305 -287 -125 0
-306 -288 -126 0
-307 -289 -124 0
-308 -290 -125 0
-309 -291 -126 0
-310 -292 -124 0
-311 -293 -125 0
-312 -294 -126 0
-313 -295 -124 0
-314 -296 -125 0
-315 -297 -126 0
-316 -298 -124 0
-317 -299 -125 0
-318 -300 -126 0
-319 -301 -124 0
-320 -302 -125 0
-321 -303 -126 0
-322 -304 -124 0
-323 -305 -125 0
-324 -306 -126 0
-325 -307 -124 0
-326 -308 -125 0
-327 -309 -126 0
-328 -310 -124 0
-329 -311 -125 0
-330 -312 -126 0
-331 -313 -124 0
-332 -314 -125 0
-333 -315 -126 0
-334 -316 -124 0
-335 -317 -125 0
-336 -318 -126 0
-337 -319 -124 0
-338 -320 -125 0
-339 -321 -126 0
-340 -322 -124 0
-341 -323 -125 0
-342 -324 -126 0
-343 -325 -124 0
-344 -326 -125 0
-345 -327 -126 0
-346 -328 -124 0
-347 -329 -125 0
-348 -330 -126 0
-349 -331 -124 0
-350 -332 -125 0
-351 -333 -126 0
-352 -334 -124 0
-353 -335 -125 0
-354 -336 -126 0
-355 -337 -124 0
-356 -338 -125 0
-357 -339 -126 0
-358 -340 -124 0
-359 -341 -125 0
-360 -342 -126 0
-361 -343 -124 0
-362 -344 -125 0
-363 -345 -126 0
-364 -346 -124 0
-365 -347 -125 0
-366 -348 -126 0
-367 -349 -124 0
-368 -350 -125 0
-369 -351 -126 0
-370 -352 -124 0
-371 -353 -125 0
-372 -354 -126 0
-373 -355 -124 0
-374 -356 -125 0
-375 -357 -126 0
-376 -358 -124 0
-377 -359 -125 0
-378 -360 -126 0
-379 -361 -124 0
-380 -362 -125 0
-381 -363 -126 0
-382 -364 -124 0
-383 -365 -125 0
-384 -366 -126 0
-385 -367 -124 0
-386 -368 -125 0
-387 -369 -126 0
-388 -370 -124 0
-389 -371 -125 0
-390 -372 -126 0
-391 -373 -124 0
-392 -374 -125 0
-393 -375 -126 0
-394 -376 -124 0
-395 -377 -125 0
-396 -378 -126 0
-397 -379 -124 0
-398 -380 -125 0
-399 -381 -126 0
-400 -382 -124 0
-401 -383 -125 0
-402 -384 -126 0
-403 -385 -124 0
-404 -386 -125 0
-405 -387 -126 0
-406 -388 -124 0
-407 -389 -125 0
-408 -390 -126 0
-409 -391 -124 0
-410 -392 -125 0
-411 -393 -126 0
-412 -394 -124 0
-413 -395 -125 0
-414 -396 -126 0
-415 -397 -124 0
-416 -398 -125 0
-417 -399 -126 0
-418 -400 -124 0
-419 -401 -125 0
-420 -402 -126 0
-421 -403 -124 0
-422 -404 -125 0
-423 -405 -126 0
-424 -406 -124 0
-425 -407 -125 0
-426 -408 -126 0
-427 -409 -124 0
-428 -410 -125 0
-429 -411 -126 0
-430 -412 -124 0
-431 -413 -125 0
-432 -414 -126 0
-433 -415 -124 0
-434 -416 -125 0
-435 -417 -126 0
-436 -418 -124 0
-437 -419 -125 0
-438 -420 -126 0
-439 -421 -124 0
-440 -422 -125 0
-441 -423 -126 0
-442 -424 -124 0
-443 -425 -125 0
-444 -426 -126 0
-445 -427 -124 0
-446 -428 -125 0
-447 -429 -126 0
-448 -430 -124 0
-449 -431 -125 0
-450 -432 -126 0
-451 -433 -124 0
-452 -434 -125 0
-453 -435 -126 0
-454 -436 -124 0
-455 -437 -125 0
-456 -438 -126 0
-457 -439 -124 0
-458 -440 -125 0
-459 -441 -126 0
-460 -442 -124 0
-461 -443 -125 0
-462 -444 -126 0
-463 -445 -124 0
-464 -446 -125 0
-465 -447 -126 0
-466 -448 -124 0
-467 -449 -125 0
-468 -450 -126 0
-469 -451 -124 0
-470 -452 -125 0
-471 -453 -126 0
-472 -454 -124 0
-473 -455 -125 0
-474 -456 -126 0
-475 -457 -124 0
-476 -458 -125 0
-477 -459 -126 0
-478 -460 -124 0
-479 -461 -125 0
-480 -462 -126 0
-481 -463 -124 0
-482 -464 -125 0
-483 -465 -126 0
-484 -466 -124 0
-485 -467 -125 0
-486 -468 -126 0
-487 -469 -124 0
-488 -470 -125 0
-489 -471 -126 0
-490 -472 -124 0
-491 -473 -125 0
-492 -474 -126 0
-493 -475 -124 0
-494 -476 -125 0
-495 -477 -126 0
-496 -478 -124 0
-497 -479 -125 0
-498 -480 -126 0
-499 -481 -124 0
-500 -482 -125 0
-501 -483 -126 0
-502 -484 -124 0
-503 -485 -125 0
-504 -486 -126 0
-505 -487 -124 0
-506 -488 -125 0
-507 -489 -126 0
-508 -490 -124 0
-509 -491 -125 0
-510 -492 -126 0
-511 -493 -124 0
-512 -494 -125 0
-513 -495 -126 0
-514 -496 -124 0
-515 -497 -125 0
-516 -498 -126 0
-517 -499 -124 0
-518 -500 -125 0
-519 -501 -126 0
-520 -502 -124 0
-521 -503 -125 0
-522 -504 -126 0
-523 -505 -124 0
-524 -506 -125 0
-525 -507 -126 0
-526 -508 -124 0
-527 -509 -125 0
-528 -510 -126 0
-529 -511 -124 0
-530 -512 -125 0
-531 -513 -126 0
-532 -514 -124 0
-533 -515 -125 0
-534 -516 -126 0
-535 -517 -124 0
-536 -518 -125 0
-537 -519 -126 0
-538 -520 -124 0
-539 -521 -125 0
-540 -522 -126 0
-541 -523 -124 0
-542 -524 -125 0
-543 -525 -126 0
-544 -526 -124 0
-545 -527 -125 0
-546 -528 -126 0
-547 -529 -124 0
-548 -530 -125 0
-549 -531 -126 0
-550 -532 -124 0
-551 -533 -125 0
-552 -534 -126 0
-553 -535 -124 0
-554 -536 -125 0
-555 -537 -126 0
-556 -538 -124 0
-557 -539 -125 0
-558 -540 -126 0
-559 -541 -124 0
-560 -542 -125 0
-561 -543 -126 0
-562 -544 -124 0
-563 -545 -125 0
-564 -546 -126 0
-565 -547 -124 0
-566 -548 -125 0
-567 -549 -126 0
-568 -550 -124 0
-569 -551 -125 0
-570 -552 -126 0
-571 -553 -124 0
-572 -554 -125 0
-573 -555 -126 0
-574 -556 -124 0
-575 -557 -125 0
-576 -558 -126 0
-577 -559 -124 0
-578 -560 -125 0
-579 -561 -126 0
-580 -562 -124 0
-581 -563 -125 0
-582 -564 -126 0
-583 -565 -124 0
-584 -566 -125 0
-585 -567 -126 0
-586 -568 -124 0
-587 -569 -125 0
-588 -570 -126 0
-589 -571 -124 0
-590 -572 -125 0
-591 -573 -126 0
-592 -574 -124 0
-593 -575 -125 0
-594 -576 -126 0
-595 -577 -124 0
-596 -578 -125 0
-597 -579 -126 0
-598 -580 -124 0
-599 -581 -125 0
-600 -582 -126 0
-601 -583 -124 0
-602 -584 -125 0
-603 -585 -126 0
-604 -586 -124 0
-605 -587 -125 0
-606 -588 -126 0
-607 -589 -124 0
-608 -590 -125 0
-609 -591 -126 0
-610 -592 -124 0
-611 -593 -125 0
-612 -594 -126 0
-613 -595 -124 0
-614 -596 -125 0
-615 -597 -126 0
-616 -598 -124 0
-617 -599 -125 0
-618 -600 -126 0
-619 -601 -124 0
-620 -602 -125 0
-621 -603 -126 0
-622 -604 -124 0
-623 -605 -125 0
-624 -606 -126 0
-625 -607 -124 0
-626 -608 -125 0
-627 -609 -126 0
-628 -610 -124 0
-629 -611 -125 0
-630 -612 -126 0
-631 -613 -124 0
-632 -614 -125 0
-633 -615 -126 0
-634 -616 -124 0
-635 -617 -125 0
-636 -618 -126 0
-637 -619 -124 0
-638 -620 -125 0
-639 -621 -126 0
-640 -622 -124 0
-641 -623 -125 0
-642 -624 -126 0
-643 -625 -124 0
-644 -626 -125 0
-645 -627 -126 0
-646 -628 -124 0
-647 -629 -125 0
-648 -630 -126 0
-649 -631 -124 0
-650 -632 -125 0
-651 -633 -126 0
-652 -634 -124 0
-653 -635 -125 0
-654 -636 -126 0
-655 -637 -124 0
-656 -638 -125 0
-657 -639 -126 0
-658 -640 -124 0
-659 -641 -125 0
-660 -642 -126 0
-661 -643 -124 0
-662 -644 -125 0
-663 -645 -126 0
-664 -646 -124 0
-665 -647 -125 0
-666 -648 -126 0
-667 -649 -124 0
-668 -650 -125 0
-669 -651 -126 0
-670 -652 -124 0
-671 -653 -125 0
-672 -654 -126 0
-673 -655 -124 0
-674 -656 -125 0
-675 -657 -126 0
-676 -658 -124 0
-677 -659 -125 0
-678 -660 -126 0
-679 -661 -124 0
-680 -662 -125 0
-681 -663 -126 0
-682 -664 -124 0
-683 -665 -125 0
-684 -666 -126 0
-685 -667 -124 0
-686 -668 -125 0
-687 -669 -126 0
-688 -670 -124 0
-689 -671 -125 0
-690 -672 -126 0
-691 -673 -124 0
-692 -674 -125 0
-693 -675 -126 0
-694 -676 -124 0
-695 -677 -125 0
-696 -678 -126 0
-697 -679 -124 0
-698 -680 -125 0
-699 -681 -126 0
-700 -682 -124 0
-701 -683 -125 0
-702 -684 -126 0
-703 -685 -124 0
-704 -686 -125 0
-705 -687 -126 0
-706 -688 -124 0
-707 -689 -125 0
-708 -690 -126 0
-709 -691 -124 0
-710 -692 -125 0
-711 -693 -126 0
-712 -694 -124 0
-713 -695 -125 0
-714 -696 -126 0
-715 -697 -124 0
-716 -698 -125 0
-717 -699 -126 0
-718 -700 -124 0
-719 -701 -125 0
-720 -702 -126 0
-721 -703 -124 0
-722 -704 -125 0
-723 -705 -126 0
-724 -706 -124 0
-725 -707 -125 0
-726 -708 -126 0
-727 -709 -124 0
-728 -710 -125 0
-729 -711 -126 0
-730 -712 -124 0
-731 -713 -125 0
-732 -714 -126 0
-733 -715 -124 0
-734 -716 -125 0
-735 -717 -126 0
-736 -718 -124 0
-737 -719 -125 0
-738 -720 -126 0
-739 -721 -124 0
-740 -722 -125 0
-741 -723 -126 0
-742 -724 -124 0
-743 -725 -125 0
-744 -726 -126 0
-745 -727 -124 0
-746 -728 -125 0
-747 -729 -126 0
-748 -730 -124 0
-749 -731 -125 0
-750 -732 -126 0
-751 -733 -124 0
-752 -734 -125 0
-753 -735 -126 0
-754 -736 -124 0
-755 -737 -125 0
-756 -738 -126 0
-757 -739 -124 0
-758 -740 -125 0
-759 -741 -126 0
-760 -742 -124 0
-761 -743 -125 0
-762 -744 -126 0
-763 -745 -124 0
-764 -746 -125 0
-765 -747 -126 0
-766 -748 -124 0
-767 -749 -125 0
-768 -750 -126 0
-769 -751 -124 0
-770 -752 -125 0
-771 -753 -126 0
-772 -754 -124 0
-773 -755 -125 0
-774 -756 -126 0
-775 -757 -124 0
-776 -758 -125 0
-777 -759 -126 0
-778 -760 -124 0
-779 -761 -125 0
-780 -762 -126 0
-781 -763 -124 0
-782 -764 -125 0
-783 -765 -126 0
-784 -766 -124 0
-785 -767 -125 0
-786 -768 -126 0
-787 -769 -124 0
-788 -770 -125 0
-789 -771 -126 0
-790 -772 -124 0
-791 -773 -125 0
-792 -774 -126 0
-793 -775 -124 0
-794 -776 -125 0
-795 -777 -126 0
-796 -778 -124 0
-797 -779 -125 0
-798 -780 -126 0
-799 -781 -124 0
-800 -782 -125 0
-801 -783 -126 0
-802 -784 -124 0
-803 -785 -125 0
-804 -786 -126 0
-805 -787 -124 0
-806 -788 -125 0
-807 -789 -126 0
-808 -790 -124 0
-809 -791 -125 0
-810 -792 -126 0
-811 -793 -124 0
-812 -794 -125 0
-813 -795 -126 0
-814 -796 -124 0
-815 -797 -125 0
-816 -798 -126 0
-817 -799 -124 0
-818 -800 -125 0
-819 -801 -126 0
-820 -802 -124 0
-821 -803 -125 0
-822 -804 -126 0
-823 -805 -124 0
-824 -806 -125 0
-825 -807 -126 0
-826 -808 -124 0
-827 -809 -125 0
-828 -810 -126 0
-829 -811 -124 0
-830 -812 -125 0
-831 -813 -126 0
-832 -814 -124 0
-833 -815 -125 0
-834 -816 -126 0
-835 -817 -124 0
-836 -818 -125 0
-837 -819 -126 0
-838 -820 -124 0
-839 -821 -125 0
-840 -822 -126 0
-841 -823 -124 0
-842 -824 -125 0
-843 -825 -126 0
-844 -826 -124 0
-845 -827 -125 0
-846 -828 -126 0
-847 -829 -124 0
-848 -830 -125 0
-849 -831 -126 0
-850 -832 -124 0
-851 -833 -125 0
-852 -834 -126 0
-853 -835 -124 0
-854 -836 -125 0
-855 -837 -126 0
-856 -838 -124 0
-857 -839 -125 0
-858 -840 -126 0
-859 -841 -124 0
-860 -842 -125 0
-861 -843 -126 0
-862 -844 -124 0
-863 -845 -125 0
-864 -846 -126 0
-865 -847 -124 0
-866 -848 -125 0
-867 -849 -126 0
-868 -850 -124 0
-869 -851 -125 0
-870 -852 -126 0
-871 -853 -124 0
-872 -854 -125 0
-873 -855 -126 0
-874 -856 -124 0
-875 -857 -125 0
-876 -858 -126 0
-877 -859 -124 0
-878 -860 -125 0
-879 -861 -126 0
-880 -862 -124 0
-881 -863 -125 0
-882 -864 -126 0
-883 -865 -124 0
-884 -866 -125 0
-885 -867 -126 0
-886 -868 -124 0
-887 -869 -125 0
-888 -870 -126 0
-889 -871 -124 0
-890 -872 -125 0
-891 -873 -126 0
-892 -874 -124 0
-893 -875 -125 0
-894 -876 -126 0
-895 -877 -124 0
-896 -878 -125 0
-897 -879 -126 0
-898 -880 -124 0
-899 -881 -125 0
-900 -882 -126 0
-901 -883 -124 0
-902 -884 -125 0
-903 -885 -126 0
-904 -886 -124 0
-905 -887 -125 0
-906 -888 -126 0
-907 -889 -124 0
-908 -890 -125 0
-909 -891 -126 0
-910 -892 -124 0
-911 -893 -125 0
-912 -894 -126 0
-913 -895 -124 0
-914 -896 -125 0
-915 -897 -126 0
-916 -898 -124 0
-917 -899 -125 0
-918 -900 -126 0
-919 -901 -124 0
-920 -902 -125 0
-921 -903 -126 0
-922 -904 -124 0
-923 -905 -125 0
-924 -906 -126 0
-925 -907 -124 0
-926 -908 -125 0
-927 -909 -126 0
-928 -910 -124 0
-929 -911 -125 0
-930 -912 -126 0
-931 -913 -124 0
-932 -914 -125 0
-933 -915 -126 0
-934 -916 -124 0
-935 -917 -125 0
-936 -918 -126 0
-937 -919 -124 0
-938 -920 -125 0
-939 -921 -126 0
-940 -922 -124 0
-941 -923 -125 0
-942 -924 -126 0
-943 -925 -124 0
-944 -926 -125 0
-945 -927 -126 0
-946 -928 -124 0
-947 -929 -125 0
-948 -930 -126 0
-949 -931 -124 0
-950 -932 -125 0
-951 -933 -126 0
-952 -934 -124 0
-953 -935 -125 0
-954 -936 -126 0
-955 -937 -124 0
-956 -938 -125 0
-957 -939 -126 0
-958 -940 -124 0
-959 -941 -125 0
-960 -942 -126 0
-961 -943 -124 0
-962 -944 -125 0
-963 -945 -126 0
-964 -946 -124 0
-965 -947 -125 0
-966 -948 -126 0
-967 -949 -124 0
-968 -950 -125 0
-969 -951 -126 0
-970 -952 -124 0
-971 -953 -125 0
-972 -954 -126 0
-973 -955 -124 0
-974 -956 -125 0
-975 -957 -126 0
-976 -958 -124 0
-977 -959 -125 0
-978 -960 -126 0
-979 -961 -124 0
-980 -962 -125 0
-981 -963 -126 0
-982 -964 -124 0
-983 -965 -125 0
-984 -966 -126 0
-985 -967 -124 0
-986 -968 -125 0
-987 -969 -126 0
-988 -970 -124 0
-989 -971 -125 0
-990 -972 -126 0
-991 -973 -124 0
-992 -974 -125 0
-993 -975 -126 0
-994 -976 -124 0
-995 -977 -125 0
-996 -978 -126 0
-997 -979 -124 0
-998 -980 -125 0
-999 -981 -126 0
-1000 -982 -124 0
-1001 -983 -125 0
-1002 -984 -126 0
-1003 -985 -124 0
-1004 -986 -125 0
-1005 -987 -126 0
-1006 -988 -124 0
-1007 -989 -125 0
-1008 -990 -126 0
-1009 -991 -124 0
-1010 -992 -125 0
-1011 -993 -126 0
-1012 -994 -124 0
-1013 -995 -125 0
-1014 -996 -126 0
-1015 -997 -124 0
-1016 -998 -125 0
-1017 -999 -126 0
-1018 -1000 -124 0
-1019 -1001 -125 0
-1020 -1002 -126 0
-1021 -1003 -124 0
-1022 -1004 -125 0
-1023 -1005 -126 0
-1024 -1006 -124 0
-1025 -1007 -125 0
-1026 -1008 -126 0
-1027 -1009 -124 0
-1028 -1010 -125 0
-1029 -1011 -126 0
-145 -22 -1 0
-146 -23 -2 0
-147 -24 -3 0
-145 -25 -4 0
-146 -26 -5 0
-147 -27 -6 0
-145 -28 -7 0
-146 -29 -8 0
-147 -30 -9 0
-145 -31 -10 0
-146 -32 -11 0
-147 -33 -12 0
-145 -34 -13 0
-146 -35 -14 0
-147 -36 -15 0
-145 -37 -16 0
-146 -38 -17 0
-147 -39 -18 0
-145 -40 -19 0
-146 -41 -20 0
-147 -42 -21 0
-145 -43 -22 0
-146 -44 -23 0
-147 -45 -24 0
-145 -46 -25 0
-146 -47 -26 0
-147 -48 -27 0
-145 -49 -28 0
-146 -50 -29 0
-147 -51 -30 0
-145 -52 -31 0
-146 -53 -32 0
-147 -54 -33 0
-145 -55 -34 0
-146 -56 -35 0
-147 -57 -36 0
-145 -58 -37 0
-146 -59 -38 0
-147 -60 -39 0
-145 -61 -40 0
-146 -62 -41 0
-147 -63 -42 0
-145 -64 -43 0
-146 -65 -44 0
-147 -66 -45 0
-145 -67 -46 0
-146 -68 -47 0
-147 -69 -48 0
-145 -70 -49 0
-146 -71 -50 0
-147 -72 -51 0
-145 -73 -52 0
-146 -74 -53 0
-147 -75 -54 0
-145 -76 -55 0
-146 -77 -56 0
-147 -78 -57 0
-145 -79 -58 0
-146 -80 -59 0
-147 -81 -60 0
-145 -82 -61 0
-146 -83 -62 0
-147 -84 -63 0
-145 -85 -64 0
-146 -86 -65 0
-147 -87 -66 0
-145 -88 -67 0
-146 -89 -68 0
-147 -90 -69 0
-145 -91 -70 0
-146 -92 -71 0
-147 -93 -72 0
-145 -94 -73 0
-146 -95 -74 0
-147 -96 -75 0
-145 -97 -76 0
-146 -98 -77 0
-147 -99 -78 0
-145 -100 -79 0
-146 -101 -80 0
-147 -102 -81 0
-145 -103 -82 0
-146 -104 -83 0
-147 -105 -84 0
-145 -106 -85 0
-146 -107 -86 0
-147 -108 -87 0
-145 -109 -88 0
-146 -110 -89 0
-147 -111 -90 0
-145 -112 -91 0
-146 -113 -92 0
-147 -114 -93 0
-145 -115 -94 0
-146 -116 -95 0
-147 -117 -96 0
-145 -118 -97 0
-146 -119 -98 0
-147 -120 -99 0
-145 -121 -100 0
-146 -122 -101 0
-147 -123 -102 0
-145 -124 -103 0
-146 -125 -104 0
-147 -126 -105 0
-145 -127 -106 0
-146 -128 -107 0
-147 -129 -108 0
-145 -130 -109 0
-146 -131 -110 0
-147 -132 -111 0
-145 -133 -112 0
-146 -134 -113 0
-147 -135 -114 0
-145 -136 -115 0
-146 -137 -116 0
-147 -138 -117 0
-145 -139 -118 0
-146 -140 -119 0
-147 -141 -120 0
-145 -142 -121 0
-146 -143 -122 0
-147 -144 -123 0
-145 -124 0
-146 -125 0
-147 -126 0
-148 -145 -127 0
-149 -146 -128 0
-150 -147 -129 0
-151 -145 -130 0
-152 -146 -131 0
-153 -147 -132 0
-154 -145 -133 0
-155 -146 -134 0
-156 -147 -135 0
-157 -145 -136 0
-158 -146 -137 0
-159 -147 -138 0
-160 -145 -139 0
-161 -146 -140 0
-162 -147 -141 0
-163 -145 -142 0
-164 -146 -143 0
-165 -147 -144 0
-166 -145 0
-167 -146 0
-168 -147 0
-169 -148 -145 0
-170 -149 -146 0
-171 -150 -147 0
-172 -151 -145 0
-173 -152 -146 0
-174 -153 -147 0
-175 -154 -145 0
-176 -155 -146 0
-177 -156 -147 0
-178 -157 -145 0
-179 -158 -146 0
-180 -159 -147 0
-181 -160 -145 0
-182 -161 -146 0
-183 -162 -147 0
-184 -163 -145 0
-185 -164 -146 0
-186 -165 -147 0
-187 -166 -145 0
-188 -167 -146 0
-189 -168 -147 0
-190 -169 -145 0
-191 -170 -146 0
-192 -171 -147 0
-193 -172 -145 0
-194 -173 -146 0
-195 -174 -147 0
-196 -175 -145 0
-197 -176 -146 0
-198 -177 -147 0
-199 -178 -145 0
-200 -179 -146 0
-201 -180 -147 0
-202 -181 -145 0
-203 -182 -146 0
-204 -183 -147 0
-205 -184 -145 0
-206 -185 -146 0
-207 -186 -147 0
-208 -187 -145 0
-209 -188 -146 0
-210 -189 -147 0
-211 -190 -145 0
-212 -191 -146 0
-213 -192 -147 0
-214 -193 -145 0
-215 -194 -146 0
-216 -195 -147 0
-217 -196 -145 0
-218 -197 -146 0
-219 -198 -147 0
-220 -199 -145 0
-221 -200 -146 0
-222 -201 -147 0
-223 -202 -145 0
-224 -203 -146 0
-225 -204 -147 0
-226 -205 -145 0
-227 -206 -146 0
-228 -207 -147 0
-229 -208 -145 0
-230 -209 -146 0
-231 -210 -147 0
-232 -211 -145 0
-233 -212 -146 0
-234 -213 -147 0
-235 -214 -145 0
-236 -215 -146 0
-237 -216 -147 0
-238 -217 -145 0
-239 -218 -146 0
-240 -219 -147 0
-241 -220 -145 0
-242 -221 -146 0
-243 -222 -147 0
-244 -223 -145 0
-245 -224 -146 0
-246 -225 -147 0
-247 -226 -145 0
-248 -227 -146 0
-249 -228 -147 0
-250 -229 -145 0
-251 -230 -146 0
-252 -231 -147 0
-253 -232 -145 0
-254 -233 -146 0
-255 -234 -147 0
-256 -235 -145 0
-257 -236 -146 0
-258 -237 -147 0
-259 -238 -145 0
-260 -239 -146 0
-261 -240 -147 0
-262 -241 -145 0
-263 -242 -146 0
-264 -243 -147 0
-265 -244 -145 0
-266 -245 -146 0
-267 -246 -147 0
-268 -247 -145 0
-269 -248 -146 0
-270 -249 -147 0
-271 -250 -145 0
-272 -251 -146 0
-273 -252 -147 0
-274 -253 -145 0
-275 -254 -146 0
-276 -255 -147 0
-277 -256 -145 0
-278 -257 -146 0
-279 -258 -147 0
-280 -259 -145 0
-281 -260 -146 0
-282 -261 -147 0
-283 -262 -145 0
-284 -263 -146 0
-285 -264 -147 0
-286 -265 -145 0
-287 -266 -146 0
-288 -267 -147 0
-289 -268 -145 0
-290 -269 -146 0
-291 -270 -147 0
-292 -271 -145 0
-293 -272 -146 0
-294 -273 -147 0
-295 -274 -145 0
-296 -275 -146 0
-297 -276 -147 0
-298 -277 -145 0
-299 -278 -146 0
-300 -279 -147 0
-301 -280 -145 0
-302 -281 -146 0
-303 -282 -147 0
-304 -283 -145 0
-305 -284 -146 0
-306 -285 -147 0
-307 -286 -145 0
-308 -287 -146 0
-309 -288 -147 0
-310 -289 -145 0
-311 -290 -146 0
-312 -291 -147 0
-313 -292 -145 0
-314 -293 -146 0
-315 -294 -147 0
-316 -295 -145 0
-317 -296 -146 0
-318 -297 -147 0
-319 -298 -145 0
-320 -299 -146 0
-321 -300 -147 0
-322 -301 -145 0
-323 -302 -146 0
-324 -303 -147 0
-325 -304 -145 0
-326 -305 -146 0
-327 -306 -147 0
-328 -307 -145 0
-329 -308 -146 0
-330 -309 -147 0
-331 -310 -145 0
-332 -311 -146 0
-333 -312 -147 0
-334 -313 -145 0
-335 -314 -146 0
-336 -315 -147 0
-337 -316 -145 0
-338 -317 -146 0
-339 -318 -147 0
-340 -319 -145 0
-341 -320 -146 0
-342 -321 -147 0
-343 -322 -145 0
-344 -323 -146 0
-345 -324 -147 0
-346 -325 -145 0
-347 -326 -146 0
-348 -327 -147 0
-349 -328 -145 0
-350 -329 -146 0
-351 -330 -147 0
-352 -331 -145 0
-353 -332 -146 0
-354 -333 -147 0
-355 -334 -145 0
-356 -335 -146 0
-357 -336 -147 0
-358 -337 -145 0
-359 -338 -146 0
-360 -339 -147 0
-361 -340 -145 0
-362 -341 -146 0
-363 -342 -147 0
-364 -343 -145 0
-365 -344 -146 0
-366 -345 -147 0
-367 -346 -145 0
-368 -347 -146 0
-369 -348 -147 0
-370 -349 -145 0
-371 -350 -146 0
-372 -351 -147 0
-373 -352 -145 0
-374 -353 -146 0
-375 -354 -147 0
-376 -355 -145 0
-377 -356 -146 0
-378 -357 -147 0
-379 -358 -145 0
-380 -359 -146 0
-381 -360 -147 0
-382 -361 -145 0
-383 -362 -146 0
-384 -363 -147 0
-385 -364 -145 0
-386 -365 -146 0
-387 -366 -147 0
-388 -367 -145 0
-389 -368 -146 0
-390 -369 -147 0
-391 -370 -145 0
-392 -371 -146 0
-393 -372 -147 0
-394 -373 -145 0
-395 -374 -146 0
-396 -375 -147 0
-397 -376 -145 0
-398 -377 -146 0
-399 -378 -147 0
-400 -379 -145 0
-401 -380 -146 0
-402 -381 -147 0
-403 -382 -145 0
-404 -383 -146 0
-405 -384 -147 0
-406 -385 -145 0
-407 -386 -146 0
-408 -387 -147 0
-409 -388 -145 0
-410 -389 -146 0
-411 -390 -147 0
-412 -391 -145 0
-413 -392 -146 0
-414 -393 -147 0
-415 -394 -145 0
-416 -395 -146 0
-417 -396 -147 0
-418 -397 -145 0
-419 -398 -146 0
-420 -399 -147 0
-421 -400 -145 0
-422 -401 -146 0
-423 -402 -147 0
-424 -403 -145 0
-425 -404 -146 0
-426 -405 -147 0
-427 -406 -145 0
-428 -407 -146 0
-429 -408 -147 0
-430 -409 -145 0
-431 -410 -146 0
-432 -411 -147 0
-433 -412 -145 0
-434 -413 -146 0
-435 -414 -147 0
-436 -415 -145 0
-437 -416 -146 0
-438 -417 -147 0
-439 -418 -145 0
-440 -419 -146 0
-441 -420 -147 0
-442 -421 -145 0
-443 -422 -146 0
-444 -423 -147 0
-445 -424 -145 0
-446 -425 -146 0
-447 -426 -147 0
-448 -427 -145 0
-449 -428 -146 0
-450 -429 -147 0
-451 -430 -145 0
-452 -431 -146 0
-453 -432 -147 0
-454 -433 -145 0
-455 -434 -146 0
-456 -435 -147 0
-457 -436 -145 0
-458 -437 -146 0
-459 -438 -147 0
-460 -439 -145 0
-461 -440 -146 0
-462 -441 -147 0
-463 -442 -145 0
-464 -443 -146 0
-465 -444 -147 0
-466 -445 -145 0
-467 -446 -146 0
-468 -447 -147 0
-469 -448 -145 0
-470 -449 -146 0
-471 -450 -147 0
-472 -451 -145 0
-473 -452 -146 0
-474 -453 -147 0
-475 -454 -145 0
-476 -455 -146 0
-477 -456 -147 0
-478 -457 -145 0
-479 -458 -146 0
-480 -459 -147 0
-481 -460 -145 0
-482 -461 -146 0
-483 -462 -147 0
-484 -463 -145 0
-485 -464 -146 0
-486 -465 -147 0
-487 -466 -145 0
-488 -467 -146 0
-489 -468 -147 0
-490 -469 -145 0
-491 -470 -146 0
-492 -471 -147 0
-493 -472 -145 0
-494 -473 -146 0
-495 -474 -147 0
-496 -475 -145 0
-497 -476 -146 0
-498 -477 -147 0
-499 -478 -145 0
-500 -479 -146 0
-501 -480 -147 0
-502 -481 -145 0
-503 -482 -146 0
-504 -483 -147 0
-505 -484 -145 0
-506 -485 -146 0
-507 -486 -147 0
-508 -487 -145 0
-509 -488 -146 0
-510 -489 -147 0
-511 -490 -145 0
-512 -491 -146 0
-513 -492 -147 0
-514 -493 -145 0
-515 -494 -146 0
-516 -495 -147 0
-517 -496 -145 0
-518 -497 -146 0
-519 -498 -147 0
-520 -499 -145 0
-521 -500 -146 0
-522 -501 -147 0
-523 -502 -145 0
-524 -503 -146 0
-525 -504 -147 0
-526 -505 -145 0
-527 -506 -146 0
-528 -507 -147 0
-529 -508 -145 0
-530 -509 -146 0
-531 -510 -147 0
-532 -511 -145 0
-533 -512 -146 0
-534 -513 -147 0
-535 -514 -145 0
-536 -515 -146 0
-537 -516 -147 0
-538 -517 -145 0
-539 -518 -146 0
-540 -519 -147 0
-541 -520 -145 0
-542 -521 -146 0
-543 -522 -147 0
-544 -523 -145 0
-545 -524 -146 0
-546 -525 -147 0
-547 -526 -145 0
-548 -527 -146 0
-549 -528 -147 0
-550 -529 -145 0
-551 -530 -146 0
-552 -531 -147 0
-553 -532 -145 0
-554 -533 -146 0
-555 -534 -147 0
-556 -535 -145 0
-557 -536 -146 0
-558 -537 -147 0
-559 -538 -145 0
-560 -539 -146 0
-561 -540 -147 0
-562 -541 -145 0
-563 -542 -146 0
-564 -543 -147 0
-565 -544 -145 0
-566 -545 -146 0
-567 -546 -147 0
-568 -547 -145 0
-569 -548 -146 0
-570 -549 -147 0
-571 -550 -145 0
-572 -551 -146 0
-573 -552 -147 0
-574 -553 -145 0
-575 -554 -146 0
-576 -555 -147 0
-577 -556 -145 0
-578 -557 -146 0
-579 -558 -147 0
-580 -559 -145 0
-581 -560 -146 0
-582 -561 -147 0
-583 -562 -145 0
-584 -563 -146 0
-585 -564 -147 0
-586 -565 -145 0
-587 -566 -146 0
-588 -567 -147 0
-589 -568 -145 0
-590 -569 -146 0
-591 -570 -147 0
-592 -571 -145 0
-593 -572 -146 0
-594 -573 -147 0
-595 -574 -145 0
-596 -575 -146 0
-597 -576 -147 0
-598 -577 -145 0
-599 -578 -146 0
-600 -579 -147 0
-601 -580 -145 0
-602 -581 -146 0
-603 -582 -147 0
-604 -583 -145 0
-605 -584 -146 0
-606 -585 -147 0
-607 -586 -145 0
-608 -587 -146 0
-609 -588 -147 0
-610 -589 -145 0
-611 -590 -146 0
-612 -591 -147 0
-613 -592 -145 0
-614 -593 -146 0
-615 -594 -147 0
-616 -595 -145 0
-617 -596 -146 0
-618 -597 -147 0
-619 -598 -145 0
-620 -599 -146 0
-621 -600 -147 0
-622 -601 -145 0
-623 -602 -146 0
-624 -603 -147 0
-625 -604 -145 0
-626 -605 -146 0
-627 -606 -147 0
-628 -607 -145 0
-629 -608 -146 0
-630 -609 -147 0
-631 -610 -145 0
-632 -611 -146 0
-633 -612 -147 0
-634 -613 -145 0
-635 -614 -146 0
-636 -615 -147 0
-637 -616 -145 0
-638 -617 -146 0
-639 -618 -147 0
-640 -619 -145 0
-641 -620 -146 0
-642 -621 -147 0
-643 -622 -145 0
-644 -623 -146 0
-645 -624 -147 0
-646 -625 -145 0
-647 -626 -146 0
-648 -627 -147 0
-649 -628 -145 0
-650 -629 -146 0
-651 -630 -147 0
-652 -631 -145 0
-653 -632 -146 0
-654 -633 -147 0
-655 -634 -145 0
-656 -635 -146 0
-657 -636 -147 0
-658 -637 -145 0
-659 -638 -146 0
-660 -639 -147 0
-661 -640 -145 0
-662 -641 -146 0
-663 -642 -147 0
-664 -643 -145 0
-665 -644 -146 0
-666 -645 -147 0
-667 -646 -145 0
-668 -647 -146 0
-669 -648 -147 0
-670 -649 -145 0
-671 -650 -146 0
-672 -651 -147 0
-673 -652 -145 0
-674 -653 -146 0
-675 -654 -147 0
-676 -655 -145 0
-677 -656 -146 0
-678 -657 -147 0
-679 -658 -145 0
-680 -659 -146 0
-681 -660 -147 0
-682 -661 -145 0
-683 -662 -146 0
-684 -663 -147 0
-685 -664 -145 0
-686 -665 -146 0
-687 -666 -147 0
-688 -667 -145 0
-689 -668 -146 0
-690 -669 -147 0
-691 -670 -145 0
-692 -671 -146 0
-693 -672 -147 0
-694 -673 -145 0
-695 -674 -146 0
-696 -675 -147 0
-697 -676 -145 0
-698 -677 -146 0
-699 -678 -147 0
-700 -679 -145 0
-701 -680 -146 0
-702 -681 -147 0
-703 -682 -145 0
-704 -683 -146 0
-705 -684 -147 0
-706 -685 -145 0
-707 -686 -146 0
-708 -687 -147 0
-709 -688 -145 0
-710 -689 -146 0
-711 -690 -147 0
-712 -691 -145 0
-713 -692 -146 0
-714 -693 -147 0
-715 -694 -145 0
-716 -695 -146 0
-717 -696 -147 0
-718 -697 -145 0
-719 -698 -146 0
-720 -699 -147 0
-721 -700 -145 0
-722 -701 -146 0
-723 -702 -147 0
-724 -703 -145 0
-725 -704 -146 0
-726 -705 -147 0
-727 -706 -145 0
-728 -707 -146 0
-729 -708 -147 0
-730 -709 -145 0
-731 -710 -146 0
-732 -711 -147 0
-733 -712 -145 0
-734 -713 -146 0
-735 -714 -147 0
-736 -715 -145 0
-737 -716 -146 0
-738 -717 -147 0
-739 -718 -145 0
-740 -719 -146 0
-741 -720 -147 0
-742 -721 -145 0
-743 -722 -146 0
-744 -723 -147 0
-745 -724 -145 0
-746 -725 -146 0
-747 -726 -147 0
-748 -727 -145 0
-749 -728 -146 0
-750 -729 -147 0
-751 -730 -145 0
-752 -731 -146 0
-753 -732 -147 0
-754 -733 -145 0
-755 -734 -146 0
-756 -735 -147 0
-757 -736 -145 0
-758 -737 -146 0
-759 -738 -147 0
-760 -739 -145 0
-761 -740 -146 0
-762 -741 -147 0
-763 -742 -145 0
-764 -743 -146 0
-765 -744 -147 0
-766 -745 -145 0
-767 -746 -146 0
-768 -747 -147 0
-769 -748 -145 0
-770 -749 -146 0
-771 -750 -147 0
-772 -751 -145 0
-773 -752 -146 0
-774 -753 -147 0
-775 -754 -145 0
-776 -755 -146 0
-777 -756 -147 0
-778 -757 -145 0
-779 -758 -146 0
-780 -759 -147 0
-781 -760 -145 0
-782 -761 -146 0
-783 -762 -147 0
-784 -763 -145 0
-785 -764 -146 0
-786 -765 -147 0
-787 -766 -145 0
-788 -767 -146 0
-789 -768 -147 0
-790 -769 -145 0
-791 -770 -146 0
-792 -771 -147 0
-793 -772 -145 0
-794 -773 -146 0
-795 -774 -147 0
-796 -775 -145 0
-797 -776 -146 0
-798 -777 -147 0
-799 -778 -145 0
-800 -779 -146 0
-801 -780 -147 0
-802 -781 -145 0
-803 -782 -146 0
-804 -783 -147 0
-805 -784 -145 0
-806 -785 -146 0
-807 -786 -147 0
-808 -787 -145 0
-809 -788 -146 0
-810 -789 -147 0
-811 -790 -145 0
-812 -791 -146 0
-813 -792 -147 0
-814 -793 -145 0
-815 -794 -146 0
-816 -795 -147 0
-817 -796 -145 0
-818 -797 -146 0
-819 -798 -147 0
-820 -799 -145 0
-821 -800 -146 0
-822 -801 -147 0
-823 -802 -145 0
-824 -803 -146 0
-825 -804 -147 0
-826 -805 -145 0
-827 -806 -146 0
-828 -807 -147 0
-829 -808 -145 0
-830 -809 -146 0
-831 -810 -147 0
-832 -811 -145 0
-833 -812 -146 0
-834 -813 -147 0
-835 -814 -145 0
-836 -815 -146 0
-837 -816 -147 0
-838 -817 -145 0
-839 -818 -146 0
-840 -819 -147 0
-841 -820 -145 0
-842 -821 -146 0
-843 -822 -147 0
-844 -823 -145 0
-845 -824 -146 0
-846 -825 -147 0
-847 -826 -145 0
-848 -827 -146 0
-849 -828 -147 0
-850 -829 -145 0
-851 -830 -146 0
-852 -831 -147 0
-853 -832 -145 0
-854 -833 -146 0
-855 -834 -147 0
-856 -835 -145 0
-857 -836 -146 0
-858 -837 -147 0
-859 -838 -145 0
-860 -839 -146 0
-861 -840 -147 0
-862 -841 -145 0
-863 -842 -146 0
-864 -843 -147 0
-865 -844 -145 0
-866 -845 -146 0
-867 -846 -147 0
-868 -847 -145 0
-869 -848 -146 0
-870 -849 -147 0
-871 -850 -145 0
-872 -851 -146 0
-873 -852 -147 0
-874 -853 -145 0
-875 -854 -146 0
-876 -855 -147 0
-877 -856 -145 0
-878 -857 -146 0
-879 -858 -147 0
-880 -859 -145 0
-881 -860 -146 0
-882 -861 -147 0
-883 -862 -145 0
-884 -863 -146 0
-885 -864 -147 0
-886 -865 -145 0
-887 -866 -146 0
-888 -867 -147 0
-889 -868 -145 0
-890 -869 -146 0
-891 -870 -147 0
-892 -871 -145 0
-893 -872 -146 0
-894 -873 -147 0
-895 -874 -145 0
-896 -875 -146 0
-897 -876 -147 0
-898 -877 -145 0
-899 -878 -146 0
-900 -879 -147 0
-901 -880 -145 0
-902 -881 -146 0
-903 -882 -147 0
-904 -883 -145 0
-905 -884 -146 0
-906 -885 -147 0
-907 -886 -145 0
-908 -887 -146 0
-909 -888 -147 0
-910 -889 -145 0
-911 -890 -146 0
-912 -891 -147 0
-913 -892 -145 0
-914 -893 -146 0
-915 -894 -147 0
-916 -895 -145 0
-917 -896 -146 0
-918 -897 -147 0
-919 -898 -145 0
-920 -899 -146 0
-921 -900 -147 0
-922 -901 -145 0
-923 -902 -146 0
-924 -903 -147 0
-925 -904 -145 0
-926 -905 -146 0
-927 -906 -147 0
-928 -907 -145 0
-929 -908 -146 0
-930 -909 -147 0
-931 -910 -145 0
-932 -911 -146 0
-933 -912 -147 0
-934 -913 -145 0
-935 -914 -146 0
-936 -915 -147 0
-937 -916 -145 0
-938 -917 -146 0
-939 -918 -147 0
-940 -919 -145 0
-941 -920 -146 0
-942 -921 -147 0
-943 -922 -145 0
-944 -923 -146 0
-945 -924 -147 0
-946 -925 -145 0
-947 -926 -146 0
-948 -927 -147 0
-949 -928 -145 0
-950 -929 -146 0
-951 -930 -147 0
-952 -931 -145 0
-953 -932 -146 0
-954 -933 -147 0
-955 -934 -145 0
-956 -935 -146 0
-957 -936 -147 0
-958 -937 -145 0
-959 -938 -146 0
-960 -939 -147 0
-961 -940 -145 0
-962 -941 -146 0
-963 -942 -147 0
-964 -943 -145 0
-965 -944 -146 0
-966 -945 -147 0
-967 -946 -145 0
-968 -947 -146 0
-969 -948 -147 0
-970 -949 -145 0
-971 -950 -146 0
-972 -951 -147 0
-973 -952 -145 0
-974 -953 -146 0
-975 -954 -147 0
-976 -955 -145 0
-977 -956 -146 0
-978 -957 -147 0
-979 -958 -145 0
-980 -959 -146 0
-981 -960 -147 0
-982 -961 -145 0
-983 -962 -146 0
-984 -963 -147 0
-985 -964 -145 0
-986 -965 -146 0
-987 -966 -147 0
-988 -967 -145 0
-989 -968 -146 0
-990 -969 -147 0
-991 -970 -145 0
-992 -971 -146 0
-993 -972 -147 0
-994 -973 -145 0
-995 -974 -146 0
-996 -975 -147 0
-997 -976 -145 0
-998 -977 -146 0
-999 -978 -147 0
-1000 -979 -145 0
-1001 -980 -146 0
-1002 -981 -147 0
-1003 -982 -145 0
-1004 -983 -146 0
-1005 -984 -147 0
-1006 -985 -145 0
-1007 -986 -146 0
-1008 -987 -147 0
-1009 -988 -145 0
-1010 -989 -146 0
-1011 -990 -147 0
-1012 -991 -145 0
-1013 -992 -146 0
-1014 -993 -147 0
-1015 -994 -145 0
-1016 -995 -146 0
-1017 -996 -147 0
-1018 -997 -145 0
-1019 -998 -146 0
-1020 -999 -147 0
-1021 -1000 -145 0
-1022 -1001 -146 0
-1023 -1002 -147 0
-1024 -1003 -145 0
-1025 -1004 -146 0
-1026 -1005 -147 0
-1027 -1006 -145 0
-1028 -1007 -146 0
-1029 -1008 -147 0
-166 -25 -1 0
-167 -26 -2 0
-168 -27 -3 0
-166 -28 -4 0
-167 -29 -5 0
-168 -30 -6 0
-166 -31 -7 0
-167 -32 -8 0
-168 -33 -9 0
-166 -34 -10 0
-167 -35 -11 0
-168 -36 -12 0
-166 -37 -13 0
-167 -38 -14 0
-168 -39 -15 0
-166 -40 -16 0
-167 -41 -17 0
-168 -42 -18 0
-166 -43 -19 0
-167 -44 -20 0
-168 -45 -21 0
-166 -46 -22 0
-167 -47 -23 0
-168 -48 -24 0
-166 -49 -25 0
-167 -50 -26 0
-168 -51 -27 0
-166 -52 -28 0
-167 -53 -29 0
-168 -54 -30 0
-166 -55 -31 0
-167 -56 -32 0
-168 -57 -33 0
-166 -58 -34 0
-167 -59 -35 0
-168 -60 -36 0
-166 -61 -37 0
-167 -62 -38 0
-168 -63 -39 0
-166 -64 -40 0
-167 -65 -41 0
-168 -66 -42 0
-166 -67 -43 0
-167 -68 -44 0
-168 -69 -45 0
-166 -70 -46 0
-167 -71 -47 0
-168 -72 -48 0
-166 -73 -49 0
-167 -74 -50 0
-168 -75 -51 0
-166 -76 -52 0
-167 -77 -53 0
-168 -78 -54 0
-166 -79 -55 0
-167 -80 -56 0
-168 -81 -57 0
-166 -82 -58 0
-167 -83 -59 0
-168 -84 -60 0
-166 -85 -61 0
-167 -86 -62 0
-168 -87 -63 0
-166 -88 -64 0
-167 -89 -65 0
-168 -90 -66 0
-166 -91 -67 0
-167 -92 -68 0
-168 -93 -69 0
-166 -94 -70 0
-167 -95 -71 0
-168 -96 -72 0
-166 -97 -73 0
-167 -98 -74 0
-168 -99 -75 0
-166 -100 -76 0
-167 -101 -77 0
-168 -102 -78 0
-166 -103 -79 0
-167 -104 -80 0
-168 -105 -81 0
-166 -106 -82 0
-167 -107 -83 0
-168 -108 -84 0
-166 -109 -85 0
-167 -110 -86 0
-168 -111 -87 0
-166 -112 -88 0
-167 -113 -89 0
-168 -114 -90 0
-166 -115 -91 0
-167 -116 -92 0
-168 -117 -93 0
-166 -118 -94 0
-167 -119 -95 0
-168 -120 -96 0
-166 -121 -97 0
-167 -122 -98 0
-168 -123 -99 0
-166 -124 -100 0
-167 -125 -101 0
-168 -126 -102 0
-166 -127 -103 0
-167 -128 -104 0
-168 -129 -105 0
-166 -130 -106 0
-167 -131 -107 0
-168 -132 -108 0
-166 -133 -109 0
-167 -134 -110 0
-168 -135 -111 0
-166 -136 -112 0
-167 -137 -113 0
-168 -138 -114 0
-166 -139 -115 0
-167 -140 -116 0
-168 -141 -117 0
-166 -142 -118 0
-167 -143 -119 0
-168 -144 -120 0
-166 -145 -121 0
-167 -146 -122 0
-168 -147 -123 0
-166 -148 -124 0
-167 -149 -125 0
-168 -150 -126 0
-166 -151 -127 0
-167 -152 -128 0
-168 -153 -129 0
-166 -154 -130 0
-167 -155 -131 0
-168 -156 -132 0
-166 -157 -133 0
-167 -158 -134 0
-168 -159 -135 0
-166 -160 -136 0
-167 -161 -137 0
-168 -162 -138 0
-166 -163 -139 0
-167 -164 -140 0
-168 -165 -141 0
-166 -142 0
-167 -143 0
-168 -144 0
-169 -166 -145 0
-170 -167 -146 0
-171 -168 -147 0
-172 -166 -148 0
-173 -167 -149 0
-174 -168 -150 0
-175 -166 -151 0
-176 -167 -152 0
-177 -168 -153 0
-178 -166 -154 0
-179 -167 -155 0
-180 -168 -156 0
-181 -166 -157 0
-182 -167 -158 0
-183 -168 -159 0
-184 -166 -160 0
-185 -167 -161 0
-186 -168 -162 0
-187 -166 -163 0
-188 -167 -164 0
-189 -168 -165 0
-190 -166 0
-191 -167 0
-192 -168 0
-193 -169 -166 0
-194 -170 -167 0
-195 -171 -168 0
-196 -172 -166 0
-197 -173 -167 0
-198 -174 -168 0
-199 -175 -166 0
-200 -176 -167 0
-201 -177 -168 0
-202 -178 -166 0
-203 -179 -167 0
-204 -180 -168 0
-205 -181 -166 0
-206 -182 -167 0
-207 -183 -168 0
-208 -184 -166 0
-209 -185 -167 0
-210 -186 -168 0
-211 -187 -166 0
-212 -188 -167 0
-213 -189 -168 0
-214 -190 -166 0
-215 -191 -167 0
-216 -192 -168 0
-217 -193 -166 0
-218 -194 -167 0
-219 -195 -168 0
-220 -196 -166 0
-221 -197 -167 0
-222 -198 -168 0
-223 -199 -166 0
-224 -200 -167 0
-225 -201 -168 0
-226 -202 -166 0
-227 -203 -167 0
-228 -204 -168 0
-229 -205 -166 0
-230 -206 -167 0
-231 -207 -168 0
-232 -208 -166 0
-233 -209 -167 0
-234 -210 -168 0
-235 -211 -166 0
-236 -212 -167 0
-237 -213 -168 0
-238 -214 -166 0
-239 -215 -167 0
-240 -216 -168 0
-241 -217 -166 0
-242 -218 -167 0
-243 -219 -168 0
-244 -220 -166 0
-245 -221 -167 0
-246 -222 -168 0
-247 -223 -166 0
-248 -224 -167 0
-249 -225 -168 0
-250 -226 -166 0
-251 -227 -167 0
-252 -228 -168 0
-253 -229 -166 0
-254 -230 -167 0
-255 -231 -168 0
-256 -232 -166 0
-257 -233 -167 0
-258 -234 -168 0
-259 -235 -166 0
-260 -236 -167 0
-261 -237 -168 0
-262 -238 -166 0
-263 -239 -167 0
-264 -240 -168 0
-265 -241 -166 0
-266 -242 -167 0
-267 -243 -168 0
-268 -244 -166 0
-269 -245 -167 0
-270 -246 -168 0
-271 -247 -166 0
-272 -248 -167 0
-273 -249 -168 0
-274 -250 -166 0
-275 -251 -167 0
-276 -252 -168 0
-277 -253 -166 0
-278 -254 -167 0
-279 -255 -168 0
-280 -256 -166 0
-281 -257 -167 0
-282 -258 -168 0
-283 -259 -166 0
-284 -260 -167 0
-285 -261 -168 0
-286 -262 -166 0
-287 -263 -167 0
-288 -264 -168 0
-289 -265 -166 0
-290 -266 -167 0
-291 -267 -168 0
-292 -268 -166 0
-293 -269 -167 0
-294 -270 -168 0
-295 -271 -166 0
-296 -272 -167 0
-297 -273 -168 0
-298 -274 -166 0
-299 -275 -167 0
-300 -276 -168 0
-301 -277 -166 0
-302 -278 -167 0
-303 -279 -168 0
-304 -280 -166 0
-305 -281 -167 0
-306 -282 -168 0
-307 -283 -166 0
-308 -284 -167 0
-309 -285 -168 0
-310 -286 -166 0
-311 -287 -167 0
-312 -288 -168 0
-313 -289 -166 0
-314 -290 -167 0
-315 -291 -168 0
-316 -292 -166 0
-317 -293 -167 0
-318 -294 -168 0
-319 -295 -166 0
-320 -296 -167 0
-321 -297 -168 0
-322 -298 -166 0
-323 -299 -167 0
-324 -300 -168 0
-325 -301 -166 0
-326 -302 -167 0
-327 -303 -168 0
-328 -304 -166 0
-329 -305 -167 0
-330 -306 -168 0
-331 -307 -166 0
-332 -308 -167 0
-333 -309 -168 0
-334 -310 -166 0
-335 -311 -167 0
-336 -312 -168 0
-337 -313 -166 0
-338 -314 -167 0
-339 -315 -168 0
-340 -316 -166 0
-341 -317 -167 0
-342 -318 -168 0
-343 -319 -166 0
-344 -320 -167 0
-345 -321 -168 0
-346 -322 -166 0
-347 -323 -167 0
-348 -324 -168 0
-349 -325 -166 0
-350 -326 -167 0
-351 -327 -168 0
-352 -328 -166 0
-353 -329 -167 0
-354 -330 -168 0
-355 -331 -166 0
-356 -332 -167 0
-357 -333 -168 0
-358 -334 -166 0
-359 -335 -167 0
-360 -336 -168 0
-361 -337 -166 0
-362 -338 -167 0
-363 -339 -168 0
-364 -340 -166 0
-365 -341 -167 0
-366 -342 -168 0
-367 -343 -166 0
-368 -344 -167 0
-369 -345 -168 0
-370 -346 -166 0
-371 -347 -167 0
-372 -348 -168 0
-373 -349 -166 0
-374 -350 -167 0
-375 -351 -168 0
-376 -352 -166 0
-377 -353 -167 0
-378 -354 -168 0
-379 -355 -166 0
-380 -356 -167 0
-381 -357 -168 0
-382 -358 -166 0
-383 -359 -167 0
-384 -360 -168 0
-385 -361 -166 0
-386 -362 -167 0
-387 -363 -168 0
-388 -364 -166 0
-389 -365 -167 0
-390 -366 -168 0
-391 -367 -166 0
-392 -368 -167 0
-393 -369 -168 0
-394 -370 -166 0
-395 -371 -167 0
-396 -372 -168 0
-397 -373 -166 0
-398 -374 -167 0
-399 -375 -168 0
-400 -376 -166 0
-401 -377 -167 0
-402 -378 -168 0
-403 -379 -166 0
-404 -380 -167 0
-405 -381 -168 0
-406 -382 -166 0
-407 -383 -167 0
-408 -384 -168 0
-409 -385 -166 0
-410 -386 -167 0
-411 -387 -168 0
-412 -388 -166 0
-413 -389 -167 0
-414 -390 -168 0
-415 -391 -166 0
-416 -392 -167 0
-417 -393 -168 0
-418 -394 -166 0
-419 -395 -167 0
-420 -396 -168 0
-421 -397 -166 0
-422 -398 -167 0
-423 -399 -168 0
-424 -400 -166 0
-425 -401 -167 0
-426 -402 -168 0
-427 -403 -166 0
-428 -404 -167 0
-429 -405 -168 0
-430 -406 -166 0
-431 -407 -167 0
-432 -408 -168 0
-433 -409 -166 0
-434 -410 -167 0
-435 -411 -168 0
-436 -412 -166 0
-437 -413 -167 0
-438 -414 -168 0
-439 -415 -166 0
-440 -416 -167 0
-441 -417 -168 0
-442 -418 -166 0
-443 -419 -167 0
-444 -420 -168 0
-445 -421 -166 0
-446 -422 -167 0
-447 -423 -168 0
-448 -424 -166 0
-449 -425 -167 0
-450 -426 -168 0
-451 -427 -166 0
-452 -428 -167 0
-453 -429 -168 0
-454 -430 -166 0
-455 -431 -167 0
-456 -432 -168 0
-457 -433 -166 0
-458 -434 -167 0
-459 -435 -168 0
-460 -436 -166 0
-461 -437 -167 0
-462 -438 -168 0
-463 -439 -166 0
-464 -440 -167 0
-465 -441 -168 0
-466 -442 -166 0
-467 -443 -167 0
-468 -444 -168 0
-469 -445 -166 0
-470 -446 -167 0
-471 -447 -168 0
-472 -448 -166 0
-473 -449 -167 0
-474 -450 -168 0
-475 -451 -166 0
-476 -452 -167 0
-477 -453 -168 0
-478 -454 -166 0
-479 -455 -167 0
-480 -456 -168 0
-481 -457 -166 0
-482 -458 -167 0
-483 -459 -168 0
-484 -460 -166 0
-485 -461 -167 0
-486 -462 -168 0
-487 -463 -166 0
-488 -464 -167 0
-489 -465 -168 0
-490 -466 -166 0
-491 -467 -167 0
-492 -468 -168 0
-493 -469 -166 0
-494 -470 -167 0
-495 -471 -168 0
-496 -472 -166 0
-497 -473 -167 0
-498 -474 -168 0
-499 -475 -166 0
-500 -476 -167 0
-501 -477 -168 0
-502 -478 -166 0
-503 -479 -167 0
-504 -480 -168 0
-505 -481 -166 0
-506 -482 -167 0
-507 -483 -168 0
-508 -484 -166 0
-509 -485 -167 0
-510 -486 -168 0
-511 -487 -166 0
-512 -488 -167 0
-513 -489 -168 0
-514 -490 -166 0
-515 -491 -167 0
-516 -492 -168 0
-517 -493 -166 0
-518 -494 -167 0
-519 -495 -168 0
-520 -496 -166 0
-521 -497 -167 0
-522 -498 -168 0
-523 -499 -166 0
-524 -500 -167 0
-525 -501 -168 0
-526 -502 -166 0
-527 -503 -167 0
-528 -504 -168 0
-529 -505 -166 0
-530 -506 -167 0
-531 -507 -168 0
-532 -508 -166 0
-533 -509 -167 0
-534 -510 -168 0
-535 -511 -166 0
-536 -512 -167 0
-537 -513 -168 0
-538 -514 -166 0
-539 -515 -167 0
-540 -516 -168 0
-541 -517 -166 0
-542 -518 -167 0
-543 -519 -168 0
-544 -520 -166 0
-545 -521 -167 0
-546 -522 -168 0
-547 -523 -166 0
-548 -524 -167 0
-549 -525 -168 0
-550 -526 -166 0
-551 -527 -167 0
-552 -528 -168 0
-553 -529 -166 0
-554 -530 -167 0
-555 -531 -168 0
-556 -532 -166 0
-557 -533 -167 0
-558 -534 -168 0
-559 -535 -166 0
-560 -536 -167 0
-561 -537 -168 0
-562 -538 -166 0
-563 -539 -167 0
-564 -540 -168 0
-565 -541 -166 0
-566 -542 -167 0
-567 -543 -168 0
-568 -544 -166 0
-569 -545 -167 0
-570 -546 -168 0
-571 -547 -166 0
-572 -548 -167 0
-573 -549 -168 0
-574 -550 -166 0
-575 -551 -167 0
-576 -552 -168 0
-577 -553 -166 0
-578 -554 -167 0
-579 -555 -168 0
-580 -556 -166 0
-581 -557 -167 0
-582 -558 -168 0
-583 -559 -166 0
-584 -560 -167 0
-585 -561 -168 0
-586 -562 -166 0
-587 -563 -167 0
-588 -564 -168 0
-589 -565 -166 0
-590 -566 -167 0
-591 -567 -168 0
-592 -568 -166 0
-593 -569 -167 0
-594 -570 -168 0
-595 -571 -166 0
-596 -572 -167 0
-597 -573 -168 0
-598 -574 -166 0
-599 -575 -167 0
-600 -576 -168 0
-601 -577 -166 0
-602 -578 -167 0
-603 -579 -168 0
-604 -580 -166 0
-605 -581 -167 0
-606 -582 -168 0
-607 -583 -166 0
-608 -584 -167 0
-609 -585 -168 0
-610 -586 -166 0
-611 -587 -167 0
-612 -588 -168 0
-613 -589 -166 0
-614 -590 -167 0
-615 -591 -168 0
-616 -592 -166 0
-617 -593 -167 0
-618 -594 -168 0
-619 -595 -166 0
-620 -596 -167 0
-621 -597 -168 0
-622 -598 -166 0
-623 -599 -167 0
-624 -600 -168 0
-625 -601 -166 0
-626 -602 -167 0
-627 -603 -168 0
-628 -604 -166 0
-629 -605 -167 0
-630 -606 -168 0
-631 -607 -166 0
-632 -608 -167 0
-633 -609 -168 0
-634 -610 -166 0
-635 -611 -167 0
-636 -612 -168 0
-637 -613 -166 0
-638 -614 -167 0
-639 -615 -168 0
-640 -616 -166 0
-641 -617 -167 0
-642 -618 -168 0
-643 -619 -166 0
-644 -620 -167 0
-645 -621 -168 0
-646 -622 -166 0
-647 -623 -167 0
-648 -624 -168 0
-649 -625 -166 0
-650 -626 -167 0
-651 -627 -168 0
-652 -628 -166 0
-653 -629 -167 0
-654 -630 -168 0
-655 -631 -166 0
-656 -632 -167 0
-657 -633 -168 0
-658 -634 -166 0
-659 -635 -167 0
-660 -636 -168 0
-661 -637 -166 0
-662 -638 -167 0
-663 -639 -168 0
-664 -640 -166 0
-665 -641 -167 0
-666 -642 -168 0
-667 -643 -166 0
-668 -644 -167 0
-669 -645 -168 0
-670 -646 -166 0
-671 -647 -167 0
-672 -648 -168 0
-673 -649 -166 0
-674 -650 -167 0
-675 -651 -168 0
-676 -652 -166 0
-677 -653 -167 0
-678 -654 -168 0
-679 -655 -166 0
-680 -656 -167 0
-681 -657 -168 0
-682 -658 -166 0
-683 -659 -167 0
-684 -660 -168 0
-685 -661 -166 0
-686 -662 -167 0
-687 -663 -168 0
-688 -664 -166 0
-689 -665 -167 0
-690 -666 -168 0
-691 -667 -166 0
-692 -668 -167 0
-693 -669 -168 0
-694 -670 -166 0
-695 -671 -167 0
-696 -672 -168 0
-697 -673 -166 0
-698 -674 -167 0
-699 -675 -168 0
-700 -676 -166 0
-701 -677 -167 0
-702 -678 -168 0
-703 -679 -166 0
-704 -680 -167 0
-705 -681 -168 0
-706 -682 -166 0
-707 -683 -167 0
-708 -684 -168 0
-709 -685 -166 0
-710 -686 -167 0
-711 -687 -168 0
-712 -688 -166 0
-713 -689 -167 0
-714 -690 -168 0
-715 -691 -166 0
-716 -692 -167 0
-717 -693 -168 0
-718 -694 -166 0
-719 -695 -167 0
-720 -696 -168 0
-721 -697 -166 0
-722 -698 -167 0
-723 -699 -168 0
-724 -700 -166 0
-725 -701 -167 0
-726 -702 -168 0
-727 -703 -166 0
-728 -704 -167 0
-729 -705 -168 0
-730 -706 -166 0
-731 -707 -167 0
-732 -708 -168 0
-733 -709 -166 0
-734 -710 -167 0
-735 -711 -168 0
-736 -712 -166 0
-737 -713 -167 0
-738 -714 -168 0
-739 -715 -166 0
-740 -716 -167 0
-741 -717 -168 0
-742 -718 -166 0
-743 -719 -167 0
-744 -720 -168 0
-745 -721 -166 0
-746 -722 -167 0
-747 -723 -168 0
-748 -724 -166 0
-749 -725 -167 0
-750 -726 -168 0
-751 -727 -166 0
-752 -728 -167 0
-753 -729 -168 0
-754 -730 -166 0
-755 -731 -167 0
-756 -732 -168 0
-757 -733 -166 0
-758 -734 -167 0
-759 -735 -168 0
-760 -736 -166 0
-761 -737 -167 0
-762 -738 -168 0
-763 -739 -166 0
-764 -740 -167 0
-765 -741 -168 0
-766 -742 -166 0
-767 -743 -167 0
-768 -744 -168 0
-769 -745 -166 0
-770 -746 -167 0
-771 -747 -168 0
-772 -748 -166 0
-773 -749 -167 0
-774 -750 -168 0
-775 -751 -166 0
-776 -752 -167 0
-777 -753 -168 0
-778 -754 -166 0
-779 -755 -167 0
-780 -756 -168 0
-781 -757 -166 0
-782 -758 -167 0
-783 -759 -168 0
-784 -760 -166 0
-785 -761 -167 0
-786 -762 -168 0
-787 -763 -166 0
-788 -764 -167 0
-789 -765 -168 0
-790 -766 -166 0
-791 -767 -167 0
-792 -768 -168 0
-793 -769 -166 0
-794 -770 -167 0
-795 -771 -168 0
-796 -772 -166 0
-797 -773 -167 0
-798 -774 -168 0
-799 -775 -166 0
-800 -776 -167 0
-801 -777 -168 0
-802 -778 -166 0
-803 -779 -167 0
-804 -780 -168 0
-805 -781 -166 0
-806 -782 -167 0
-807 -783 -168 0
-808 -784 -166 0
-809 -785 -167 0
-810 -786 -168 0
-811 -787 -166 0
-812 -788 -167 0
-813 -789 -168 0
-814 -790 -166 0
-815 -791 -167 0
-816 -792 -168 0
-817 -793 -166 0
-818 -794 -167 0
-819 -795 -168 0
-820 -796 -166 0
-821 -797 -167 0
-822 -798 -168 0
-823 -799 -166 0
-824 -800 -167 0
-825 -801 -168 0
-826 -802 -166 0
-827 -803 -167 0
-828 -804 -168 0
-829 -805 -166 0
-830 -806 -167 0
-831 -807 -168 0
-832 -808 -166 0
-833 -809 -167 0
-834 -810 -168 0
-835 -811 -166 0
-836 -812 -167 0
-837 -813 -168 0
-838 -814 -166 0
-839 -815 -167 0
-840 -816 -168 0
-841 -817 -166 0
-842 -818 -167 0
-843 -819 -168 0
-844 -820 -166 0
-845 -821 -167 0
-846 -822 -168 0
-847 -823 -166 0
-848 -824 -167 0
-849 -825 -168 0
-850 -826 -166 0
-851 -827 -167 0
-852 -828 -168 0
-853 -829 -166 0
-854 -830 -167 0
-855 -831 -168 0
-856 -832 -166 0
-857 -833 -167 0
-858 -834 -168 0
-859 -835 -166 0
-860 -836 -167 0
-861 -837 -168 0
-862 -838 -166 0
-863 -839 -167 0
-864 -840 -168 0
-865 -841 -166 0
-866 -842 -167 0
-867 -843 -168 0
-868 -844 -166 0
-869 -845 -167 0
-870 -846 -168 0
-871 -847 -166 0
-872 -848 -167 0
-873 -849 -168 0
-874 -850 -166 0
-875 -851 -167 0
-876 -852 -168 0
-877 -853 -166 0
-878 -854 -167 0
-879 -855 -168 0
-880 -856 -166 0
-881 -857 -167 0
-882 -858 -168 0
-883 -859 -166 0
-884 -860 -167 0
-885 -861 -168 0
-886 -862 -166 0
-887 -863 -167 0
-888 -864 -168 0
-889 -865 -166 0
-890 -866 -167 0
-891 -867 -168 0
-892 -868 -166 0
-893 -869 -167 0
-894 -870 -168 0
-895 -871 -166 0
-896 -872 -167 0
-897 -873 -168 0
-898 -874 -166 0
-899 -875 -167 0
-900 -876 -168 0
-901 -877 -166 0
-902 -878 -167 0
-903 -879 -168 0
-904 -880 -166 0
-905 -881 -167 0
-906 -882 -168 0
-907 -883 -166 0
-908 -884 -167 0
-909 -885 -168 0
-910 -886 -166 0
-911 -887 -167 0
-912 -888 -168 0
-913 -889 -166 0
-914 -890 -167 0
-915 -891 -168 0
-916 -892 -166 0
-917 -893 -167 0
-918 -894 -168 0
-919 -895 -166 0
-920 -896 -167 0
-921 -897 -168 0
-922 -898 -166 0
-923 -899 -167 0
-924 -900 -168 0
-925 -901 -166 0
-926 -902 -167 0
-927 -903 -168 0
-928 -904 -166 0
-929 -905 -167 0
-930 -906 -168 0
-931 -907 -166 0
-932 -908 -167 0
-933 -909 -168 0
-934 -910 -166 0
-935 -911 -167 0
-936 -912 -168 0
-937 -913 -166 0
-938 -914 -167 0
-939 -915 -168 0
-940 -916 -166 0
-941 -917 -167 0
-942 -918 -168 0
-943 -919 -166 0
-944 -920 -167 0
-945 -921 -168 0
-946 -922 -166 0
-947 -923 -167 0
-948 -924 -168 0
-949 -925 -166 0
-950 -926 -167 0
-951 -927 -168 0
-952 -928 -166 0
-953 -929 -167 0
-954 -930 -168 0
-955 -931 -166 0
-956 -932 -167 0
-957 -933 -168 0
-958 -934 -166 0
-959 -935 -167 0
-960 -936 -168 0
-961 -937 -166 0
-962 -938 -167 0
-963 -939 -168 0
-964 -940 -166 0
-965 -941 -167 0
-966 -942 -168 0
-967 -943 -166 0
-968 -944 -167 0
-969 -945 -168 0
-970 -946 -166 0
-971 -947 -167 0
-972 -948 -168 0
-973 -949 -166 0
-974 -950 -167 0
-975 -951 -168 0
-976 -952 -166 0
-977 -953 -167 0
-978 -954 -168 0
-979 -955 -166 0
-980 -956 -167 0
-981 -957 -168 0
-982 -958 -166 0
-983 -959 -167 0
-984 -960 -168 0
-985 -961 -166 0
-986 -962 -167 0
-987 -963 -168 0
-988 -964 -166 0
-989 -965 -167 0
-990 -966 -168 0
-991 -967 -166 0
-992 -968 -167 0
-993 -969 -168 0
-994 -970 -166 0
-995 -971 -167 0
-996 -972 -168 0
-997 -973 -166 0
-998 -974 -167 0
-999 -975 -168 0
-1000 -976 -166 0
-1001 -977 -167 0
-1002 -978 -168 0
-1003 -979 -166 0
-1004 -980 -167 0
-1005 -981 -168 0
-1006 -982 -166 0
-1007 -983 -167 0
-1008 -984 -168 0
-1009 -985 -166 0
-1010 -986 -167 0
-1011 -987 -168 0
-1012 -988 -166 0
-1013 -989 -167 0
-1014 -990 -168 0
-1015 -991 -166 0
-1016 -992 -167 0
-1017 -993 -168 0
-1018 -994 -166 0
-1019 -995 -167 0
-1020 -996 -168 0
-1021 -997 -166 0
-1022 -998 -167 0
-1023 -999 -168 0
-1024 -1000 -166 0
-1025 -1001 -167 0
-1026 -1002 -168 0
-1027 -1003 -166 0
-1028 -1004 -167 0
-1029 -1005 -168 0
-187 -28 -1 0
-188 -29 -2 0
-189 -30 -3 0
-187 -31 -4 0
-188 -32 -5 0
-189 -33 -6 0
-187 -34 -7 0
-188 -35 -8 0
-189 -36 -9 0
-187 -37 -10 0
-188 -38 -11 0
-189 -39 -12 0
-187 -40 -13 0
-188 -41 -14 0
-189 -42 -15 0
-187 -43 -16 0
-188 -44 -17 0
-189 -45 -18 0
-187 -46 -19 0
-188 -47 -20 0
-189 -48 -21 0
-187 -49 -22 0
-188 -50 -23 0
-189 -51 -24 0
-187 -52 -25 0
-188 -53 -26 0
-189 -54 -27 0
-187 -55 -28 0
-188 -56 -29 0
-189 -57 -30 0
-187 -58 -31 0
-188 -59 -32 0
-189 -60 -33 0
-187 -61 -34 0
-188 -62 -35 0
-189 -63 -36 0
-187 -64 -37 0
-188 -65 -38 0
-189 -66 -39 0
-187 -67 -40 0
-188 -68 -41 0
-189 -69 -42 0
-187 -70 -43 0
-188 -71 -44 0
-189 -72 -45 0
-187 -73 -46 0
-188 -74 -47 0
-189 -75 -48 0
-187 -76 -49 0
-188 -77 -50 0
-189 -78 -51 0
-187 -79 -52 0
-188 -80 -53 0
-189 -81 -54 0
-187 -82 -55 0
-188 -83 -56 0
-189 -84 -57 0
-187 -85 -58 0
-188 -86 -59 0
-189 -87 -60 0
-187 -88 -61 0
-188 -89 -62 0
-189 -90 -63 0
-187 -91 -64 0
-188 -92 -65 0
-189 -93 -66 0
-187 -94 -67 0
-188 -95 -68 0
-189 -96 -69 0
-187 -97 -70 0
-188 -98 -71 0
-189 -99 -72 0
-187 -100 -73 0
-188 -101 -74 0
-189 -102 -75 0
-187 -103 -76 0
-188 -104 -77 0
-189 -105 -78 0
-187 -106 -79 0
-188 -107 -80 0
-189 -108 -81 0
-187 -109 -82 0
-188 -110 -83 0
-189 -111 -84 0
-187 -112 -85 0
-188 -113 -86 0
-189 -114 -87 0
-187 -115 -88 0
-188 -116 -89 0
-189 -117 -90 0
-187 -118 -91 0
-188 -119 -92 0
-189 -120 -93 0
-187 -121 -94 0
-188 -122 -95 0
-189 -123 -96 0
-187 -124 -97 0
-188 -125 -98 0
-189 -126 -99 0
-187 -127 -100 0
-188 -128 -101 0
-189 -129 -102 0
-187 -130 -103 0
-188 -131 -104 0
-189 -132 -105 0
-187 -133 -106 0
-188 -134 -107 0
-189 -135 -108 0
-187 -136 -109 0
-188 -137 -110 0
-189 -138 -111 0
-187 -139 -112 0
-188 -140 -113 0
-189 -141 -114 0
-187 -142 -115 0
-188 -143 -116 0
-189 -144 -117 0
-187 -145 -118 0
-188 -146 -119 0
-189 -147 -120 0
-187 -148 -121 0
-188 -149 -122 0
-189 -150 -123 0
-187 -151 -124 0
-188 -152 -125 0
-189 -153 -126 0
-187 -154 -127 0
-188 -155 -128 0
-189 -156 -129 0
-187 -157 -130 0
-188 -158 -131 0
-189 -159 -132 0
-187 -160 -133 0
-188 -161 -134 0
-189 -162 -135 0
-187 -163 -136 0
-188 -164 -137 0
-189 -165 -138 0
-187 -166 -139 0
-188 -167 -140 0
-189 -168 -141 0
-187 -169 -142 0
-188 -170 -143 0
-189 -171 -144 0
-187 -172 -145 0
-188 -173 -146 0
-189 -174 -147 0
-187 -175 -148 0
-188 -176 -149 0
-189 -177 -150 0
-187 -178 -151 0
-188 -179 -152 0
-189 -180 -153 0
-187 -181 -154 0
-188 -182 -155 0
-189 -183 -156 0
-187 -184 -157 0
-188 -185 -158 0
-189 -186 -159 0
-187 -160 0
-188 -161 0
-189 -162 0
-190 -187 -163 0
-191 -188 -164 0
-192 -189 -165 0
-193 -187 -166 0
-194 -188 -167 0
-195 -189 -168 0
-196 -187 -169 0
-197 -188 -170 0
-198 -189 -171 0
-199 -187 -172 0
-200 -188 -173 0
-201 -189 -174 0
-202 -187 -175 0
-203 -188 -176 0
-204 -189 -177 0
-205 -187 -178 0
-206 -188 -179 0
-207 -189 -180 0
-208 -187 -181 0
-209 -188 -182 0
-210 -189 -183 0
-211 -187 -184 0
-212 -188 -185 0
-213 -189 -186 0
-214 -187 0
-215 -188 0
-216 -189 0
-217 -190 -187 0
-218 -191 -188 0
-219 -192 -189 0
-220 -193 -187 0
-221 -194 -188 0
-222 -195 -189 0
-223 -196 -187 0
-224 -197 -188 0
-225 -198 -189 0
-226 -199 -187 0
-227 -200 -188 0
-228 -201 -189 0
-229 -202 -187 0
-230 -203 -188 0
-231 -204 -189 0
-232 -205 -187 0
-233 -206 -188 0
-234 -207 -189 0
-235 -208 -187 0
-236 -209 -188 0
-237 -210 -189 0
-238 -211 -187 0
-239 -212 -188 0
-240 -213 -189 0
-241 -214 -187 0
-242 -215 -188 0
-243 -216 -189 0
-244 -217 -187 0
-245 -218 -188 0
-246 -219 -189 0
-247 -220 -187 0
-248 -221 -188 0
-249 -222 -189 0
-250 -223 -187 0
-251 -224 -188 0
-252 -225 -189 0
-253 -226 -187 0
-254 -227 -188 0
-255 -228 -189 0
-256 -229 -187 0
-257 -230 -188 0
-258 -231 -189 0
-259 -232 -187 0
-260 -233 -188 0
-261 -234 -189 0
-262 -235 -187 0
-263 -236 -188 0
-264 -237 -189 0
-265 -238 -187 0
-266 -239 -188 0
-267 -240 -189 0
-268 -241 -187 0
-269 -242 -188 0
-270 -243 -189 0
-271 -244 -187 0
-272 -245 -188 0
-273 -246 -189 0
-274 -247 -187 0
-275 -248 -188 0
-276 -249 -189 0
-277 -250 -187 0
-278 -251 -188 0
-279 -252 -189 0
-280 -253 -187 0
-281 -254 -188 0
-282 -255 -189 0
-283 -256 -187 0
-284 -257 -188 0
-285 -258 -189 0
-286 -259 -187 0
-287 -260 -188 0
-288 -261 -189 0
-289 -262 -187 0
-290 -263 -188 0
-291 -264 -189 0
-292 -265 -187 0
-293 -266 -188 0
-294 -267 -189 0
-295 -268 -187 0
-296 -269 -188 0
-297 -270 -189 0
-298 -271 -187 0
-299 -272 -188 0
-300 -273 -189 0
-301 -274 -187 0
-302 -275 -188 0
-303 -276 -189 0
-304 -277 -187 0
-305 -278 -188 0
-306 -279 -189 0
-307 -280 -187 0
-308 -281 -188 0
-309 -282 -189 0
-310 -283 -187 0
-311 -284 -188 0
-312 -285 -189 0
-313 -286 -187 0
-314 -287 -188 0
-315 -288 -189 0
-316 -289 -187 0
-317 -290 -188 0
-318 -291 -189 0
-319 -292 -187 0
-320 -293 -188 0
-321 -294 -189 0
-322 -295 -187 0
-323 -296 -188 0
-324 -297 -189 0
-325 -298 -187 0
-326 -299 -188 0
-327 -300 -189 0
-328 -301 -187 0
-329 -302 -188 0
-330 -303 -189 0
-331 -304 -187 0
-332 -305 -188 0
-333 -306 -189 0
-334 -307 -187 0
-335 -308 -188 0
-336 -309 -189 0
-337 -310 -187 0
-338 -311 -188 0
-339 -312 -189 0
-340 -313 -187 0
-341 -314 -188 0
-342 -315 -189 0
-343 -316 -187 0
-344 -317 -188 0
-345 -318 -189 0
-346 -319 -187 0
-347 -320 -188 0
-348 -321 -189 0
-349 -322 -187 0
-350 -323 -188 0
-351 -324 -189 0
-352 -325 -187 0
-353 -326 -188 0
-354 -327 -189 0
-355 -328 -187 0
-356 -329 -188 0
-357 -330 -189 0
-358 -331 -187 0
-359 -332 -188 0
-360 -333 -189 0
-361 -334 -187 0
-362 -335 -188 0
-363 -336 -189 0
-364 -337 -187 0
-365 -338 -188 0
-366 -339 -189 0
-367 -340 -187 0
-368 -341 -188 0
-369 -342 -189 0
-370 -343 -187 0
-371 -344 -188 0
-372 -345 -189 0
-373 -346 -187 0
-374 -347 -188 0
-375 -348 -189 0
-376 -349 -187 0
-377 -350 -188 0
-378 -351 -189 0
-379 -352 -187 0
-380 -353 -188 0
-381 -354 -189 0
-382 -355 -187 0
-383 -356 -188 0
-384 -357 -189 0
-385 -358 -187 0
-386 -359 -188 0
-387 -360 -189 0
-388 -361 -187 0
-389 -362 -188 0
-390 -363 -189 0
-391 -364 -187 0
-392 -365 -188 0
-393 -366 -189 0
-394 -367 -187 0
-395 -368 -188 0
-396 -369 -189 0
-397 -370 -187 0
-398 -371 -188 0
-399 -372 -189 0
-400 -373 -187 0
-401 -374 -188 0
-402 -375 -189 0
-403 -376 -187 0
-404 -377 -188 0
-405 -378 -189 0
-406 -379 -187 0
-407 -380 -188 0
-408 -381 -189 0
-409 -382 -187 0
-410 -383 -188 0
-411 -384 -189 0
-412 -385 -187 0
-413 -386 -188 0
-414 -387 -189 0
-415 -388 -187 0
-416 -389 -188 0
-417 -390 -189 0
-418 -391 -187 0
-419 -392 -188 0
-420 -393 -189 0
-421 -394 -187 0
-422 -395 -188 0
-423 -396 -189 0
-424 -397 -187 0
-425 -398 -188 0
-426 -399 -189 0
-427 -400 -187 0
-428 -401 -188 0
-429 -402 -189 0
-430 -403 -187 0
-431 -404 -188 0
-432 -405 -189 0
-433 -406 -187 0
-434 -407 -188 0
-435 -408 -189 0
-436 -409 -187 0
-437 -410 -188 0
-438 -411 -189 0
-439 -412 -187 0
-440 -413 -188 0
-441 -414 -189 0
-442 -415 -187 0
-443 -416 -188 0
-444 -417 -189 0
-445 -418 -187 0
-446 -419 -188 0
-447 -420 -189 0
-448 -421 -187 0
-449 -422 -188 0
-450 -423 -189 0
-451 -424 -187 0
-452 -425 -188 0
-453 -426 -189 0
-454 -427 -187 0
-455 -428 -188 0
-456 -429 -189 0
-457 -430 -187 0
-458 -431 -188 0
-459 -432 -189 0
-460 -433 -187 0
-461 -434 -188 0
-462 -435 -189 0
-463 -436 -187 0
-464 -437 -188 0
-465 -438 -189 0
-466 -439 -187 0
-467 -440 -188 0
-468 -441 -189 0
-469 -442 -187 0
-470 -443 -188 0
-471 -444 -189 0
-472 -445 -187 0
-473 -446 -188 0
-474 -447 -189 0
-475 -448 -187 0
-476 -449 -188 0
-477 -450 -189 0
-478 -451 -187 0
-479 -452 -188 0
-480 -453 -189 0
-481 -454 -187 0
-482 -455 -188 0
-483 -456 -189 0
-484 -457 -187 0
-485 -458 -188 0
-486 -459 -189 0
-487 -460 -187 0
-488 -461 -188 0
-489 -462 -189 0
-490 -463 -187 0
-491 -464 -188 0
-492 -465 -189 0
-493 -466 -187 0
-494 -467 -188 0
-495 -468 -189 0
-496 -469 -187 0
-497 -470 -188 0
-498 -471 -189 0
-499 -472 -187 0
-500 -473 -188 0
-501 -474 -189 0
-502 -475 -187 0
-503 -476 -188 0
-504 -477 -189 0
-505 -478 -187 0
-506 -479 -188 0
-507 -480 -189 0
-508 -481 -187 0
-509 -482 -188 0
-510 -483 -189 0
-511 -484 -187 0
-512 -485 -188 0
-513 -486 -189 0
-514 -487 -187 0
-515 -488 -188 0
-516 -489 -189 0
-517 -490 -187 0
-518 -491 -188 0
-519 -492 -189 0
-520 -493 -187 0
-521 -494 -188 0
-522 -495 -189 0
-523 -496 -187 0
-524 -497 -188 0
-525 -498 -189 0
-526 -499 -187 0
-527 -500 -188 0
-528 -501 -189 0
-529 -502 -187 0
-530 -503 -188 0
-531 -504 -189 0
-532 -505 -187 0
-533 -506 -188 0
-534 -507 -189 0
-535 -508 -187 0
-536 -509 -188 0
-537 -510 -189 0
-538 -511 -187 0
-539 -512 -188 0
-540 -513 -189 0
-541 -514 -187 0
-542 -515 -188 0
-543 -516 -189 0
-544 -517 -187 0
-545 -518 -188 0
-546 -519 -189 0
-547 -520 -187 0
-548 -521 -188 0
-549 -522 -189 0
-550 -523 -187 0
-551 -524 -188 0
-552 -525 -189 0
-553 -526 -187 0
-554 -527 -188 0
-555 -528 -189 0
-556 -529 -187 0
-557 -530 -188 0
-558 -531 -189 0
-559 -532 -187 0
-560 -533 -188 0
-561 -534 -189 0
-562 -535 -187 0
-563 -536 -188 0
-564 -537 -189 0
-565 -538 -187 0
-566 -539 -188 0
-567 -540 -189 0
-568 -541 -187 0
-569 -542 -188 0
-570 -543 -189 0
-571 -544 -187 0
-572 -545 -188 0
-573 -546 -189 0
-574 -547 -187 0
-575 -548 -188 0
-576 -549 -189 0
-577 -550 -187 0
-578 -551 -188 0
-579 -552 -189 0
-580 -553 -187 0
-581 -554 -188 0
-582 -555 -189 0
-583 -556 -187 0
-584 -557 -188 0
-585 -558 -189 0
-586 -559 -187 0
-587 -560 -188 0
-588 -561 -189 0
-589 -562 -187 0
-590 -563 -188 0
-591 -564 -189 0
-592 -565 -187 0
-593 -566 -188 0
-594 -567 -189 0
-595 -568 -187 0
-596 -569 -188 0
-597 -570 -189 0
-598 -571 -187 0
-599 -572 -188 0
-600 -573 -189 0
-601 -574 -187 0
-602 -575 -188 0
-603 -576 -189 0
-604 -577 -187 0
-605 -578 -188 0
-606 -579 -189 0
-607 -580 -187 0
-608 -581 -188 0
-609 -582 -189 0
-610 -583 -187 0
-611 -584 -188 0
-612 -585 -189 0
-613 -586 -187 0
-614 -587 -188 0
-615 -588 -189 0
-616 -589 -187 0
-617 -590 -188 0
-618 -591 -189 0
-619 -592 -187 0
-620 -593 -188 0
-621 -594 -189 0
-622 -595 -187 0
-623 -596 -188 0
-624 -597 -189 0
-625 -598 -187 0
-626 -599 -188 0
-627 -600 -189 0
-628 -601 -187 0
-629 -602 -188 0
-630 -603 -189 0
-631 -604 -187 0
-632 -605 -188 0
-633 -606 -189 0
-634 -607 -187 0
-635 -608 -188 0
-636 -609 -189 0
-637 -610 -187 0
-638 -611 -188 0
-639 -612 -189 0
-640 -613 -187 0
-641 -614 -188 0
-642 -615 -189 0
-643 -616 -187 0
-644 -617 -188 0
-645 -618 -189 0
-646 -619 -187 0
-647 -620 -188 0
-648 -621 -189 0
-649 -622 -187 0
-650 -623 -188 0
-651 -624 -189 0
-652 -625 -187 0
-653 -626 -188 0
-654 -627 -189 0
-655 -628 -187 0
-656 -629 -188 0
-657 -630 -189 0
-658 -631 -187 0
-659 -632 -188 0
-660 -633 -189 0
-661 -634 -187 0
-662 -635 -188 0
-663 -636 -189 0
-664 -637 -187 0
-665 -638 -188 0
-666 -639 -189 0
-667 -640 -187 0
-668 -641 -188 0
-669 -642 -189 0
-670 -643 -187 0
-671 -644 -188 0
-672 -645 -189 0
-673 -646 -187 0
-674 -647 -188 0
-675 -648 -189 0
-676 -649 -187 0
-677 -650 -188 0
-678 -651 -189 0
-679 -652 -187 0
-680 -653 -188 0
-681 -654 -189 0
-682 -655 -187 0
-683 -656 -188 0
-684 -657 -189 0
-685 -658 -187 0
-686 -659 -188 0
-687 -660 -189 0
-688 -661 -187 0
-689 -662 -188 0
-690 -663 -189 0
-691 -664 -187 0
-692 -665 -188 0
-693 -666 -189 0
-694 -667 -187 0
-695 -668 -188 0
-696 -669 -189 0
-697 -670 -187 0
-698 -671 -188 0
-699 -672 -189 0
-700 -673 -187 0
-701 -674 -188 0
-702 -675 -189 0
-703 -676 -187 0
-704 -677 -188 0
-705 -678 -189 0
-706 -679 -187 0
-707 -680 -188 0
-708 -681 -189 0
-709 -682 -187 0
-710 -683 -188 0
-711 -684 -189 0
-712 -685 -187 0
-713 -686 -188 0
-714 -687 -189 0
-715 -688 -187 0
-716 -689 -188 0
-717 -690 -189 0
-718 -691 -187 0
-719 -692 -188 0
-720 -693 -189 0
-721 -694 -187 0
-722 -695 -188 0
-723 -696 -189 0
-724 -697 -187 0
-725 -698 -188 0
-726 -699 -189 0
-727 -700 -187 0
-728 -701 -188 0
-729 -702 -189 0
-730 -703 -187 0
-731 -704 -188 0
-732 -705 -189 0
-733 -706 -187 0
-734 -707 -188 0
-735 -708 -189 0
-736 -709 -187 0
-737 -710 -188 0
-738 -711 -189 0
-739 -712 -187 0
-740 -713 -188 0
-741 -714 -189 0
-742 -715 -187 0
-743 -716 -188 0
-744 -717 -189 0
-745 -718 -187 0
-746 -719 -188 0
-747 -720 -189 0
-748 -721 -187 0
-749 -722 -188 0
-750 -723 -189 0
-751 -724 -187 0
-752 -725 -188 0
-753 -726 -189 0
-754 -727 -187 0
-755 -728 -188 0
-756 -729 -189 0
-757 -730 -187 0
-758 -731 -188 0
-759 -732 -189 0
-760 -733 -187 0
-761 -734 -188 0
-762 -735 -189 0
-763 -736 -187 0
-764 -737 -188 0
-765 -738 -189 0
-766 -739 -187 0
-767 -740 -188 0
-768 -741 -189 0
-769 -742 -187 0
-770 -743 -188 0
-771 -744 -189 0
-772 -745 -187 0
-773 -746 -188 0
-774 -747 -189 0
-775 -748 -187 0
-776 -749 -188 0
-777 -750 -189 0
-778 -751 -187 0
-779 -752 -188 0
-780 -753 -189 0
-781 -754 -187 0
-782 -755 -188 0
-783 -756 -189 0
-784 -757 -187 0
-785 -758 -188 0
-786 -759 -189 0
-787 -760 -187 0
-788 -761 -188 0
-789 -762 -189 0
-790 -763 -187 0
-791 -764 -188 0
-792 -765 -189 0
-793 -766 -187 0
-794 -767 -188 0
-795 -768 -189 0
-796 -769 -187 0
-797 -770 -188 0
-798 -771 -189 0
-799 -772 -187 0
-800 -773 -188 0
-801 -774 -189 0
-802 -775 -187 0
-803 -776 -188 0
-804 -777 -189 0
-805 -778 -187 0
-806 -779 -188 0
-807 -780 -189 0
-808 -781 -187 0
-809 -782 -188 0
-810 -783 -189 0
-811 -784 -187 0
-812 -785 -188 0
-813 -786 -189 0
-814 -787 -187 0
-815 -788 -188 0
-816 -789 -189 0
-817 -790 -187 0
-818 -791 -188 0
-819 -792 -189 0
-820 -793 -187 0
-821 -794 -188 0
-822 -795 -189 0
-823 -796 -187 0
-824 -797 -188 0
-825 -798 -189 0
-826 -799 -187 0
-827 -800 -188 0
-828 -801 -189 0
-829 -802 -187 0
-830 -803 -188 0
-831 -804 -189 0
-832 -805 -187 0
-833 -806 -188 0
-834 -807 -189 0
-835 -808 -187 0
-836 -809 -188 0
-837 -810 -189 0
-838 -811 -187 0
-839 -812 -188 0
-840 -813 -189 0
-841 -814 -187 0
-842 -815 -188 0
-843 -816 -189 0
-844 -817 -187 0
-845 -818 -188 0
-846 -819 -189 0
-847 -820 -187 0
-848 -821 -188 0
-849 -822 -189 0
-850 -823 -187 0
-851 -824 -188 0
-852 -825 -189 0
-853 -826 -187 0
-854 -827 -188 0
-855 -828 -189 0
-856 -829 -187 0
-857 -830 -188 0
-858 -831 -189 0
-859 -832 -187 0
-860 -833 -188 0
-861 -834 -189 0
-862 -835 -187 0
-863 -836 -188 0
-864 -837 -189 0
-865 -838 -187 0
-866 -839 -188 0
-867 -840 -189 0
-868 -841 -187 0
-869 -842 -188 0
-870 -843 -189 0
-871 -844 -187 0
-872 -845 -188 0
-873 -846 -189 0
-874 -847 -187 0
-875 -848 -188 0
-876 -849 -189 0
-877 -850 -187 0
-878 -851 -188 0
-879 -852 -189 0
-880 -853 -187 0
-881 -854 -188 0
-882 -855 -189 0
-883 -856 -187 0
-884 -857 -188 0
-885 -858 -189 0
-886 -859 -187 0
-887 -860 -188 0
-888 -861 -189 0
-889 -862 -187 0
-890 -863 -188 0
-891 -864 -189 0
-892 -865 -187 0
-893 -866 -188 0
-894 -867 -189 0
-895 -868 -187 0
-896 -869 -188 0
-897 -870 -189 0
-898 -871 -187 0
-899 -872 -188 0
-900 -873 -189 0
-901 -874 -187 0
-902 -875 -188 0
-903 -876 -189 0
-904 -877 -187 0
-905 -878 -188 0
-906 -879 -189 0
-907 -880 -187 0
-908 -881 -188 0
-909 -882 -189 0
-910 -883 -187 0
-911 -884 -188 0
-912 -885 -189 0
-913 -886 -187 0
-914 -887 -188 0
-915 -888 -189 0
-916 -889 -187 0
-917 -890 -188 0
-918 -891 -189 0
-919 -892 -187 0
-920 -893 -188 0
-921 -894 -189 0
-922 -895 -187 0
-923 -896 -188 0
-924 -897 -189 0
-925 -898 -187 0
-926 -899 -188 0
-927 -900 -189 0
-928 -901 -187 0
-929 -902 -188 0
-930 -903 -189 0
-931 -904 -187 0
-932 -905 -188 0
-933 -906 -189 0
-934 -907 -187 0
-935 -908 -188 0
-936 -909 -189 0
-937 -910 -187 0
-938 -911 -188 0
-939 -912 -189 0
-940 -913 -187 0
-941 -914 -188 0
-942 -915 -189 0
-943 -916 -187 0
-944 -917 -188 0
-945 -918 -189 0
-946 -919 -187 0
-947 -920 -188 0
-948 -921 -189 0
-949 -922 -187 0
-950 -923 -188 0
-951 -924 -189 0
-952 -925 -187 0
-953 -926 -188 0
-954 -927 -189 0
-955 -928 -187 0
-956 -929 -188 0
-957 -930 -189 0
-958 -931 -187 0
-959 -932 -188 0
-960 -933 -189 0
-961 -934 -187 0
-962 -935 -188 0
-963 -936 -189 0
-964 -937 -187 0
-965 -938 -188 0
-966 -939 -189 0
-967 -940 -187 0
-968 -941 -188 0
-969 -942 -189 0
-970 -943 -187 0
-971 -944 -188 0
-972 -945 -189 0
-973 -946 -187 0
-974 -947 -188 0
-975 -948 -189 0
-976 -949 -187 0
-977 -950 -188 0
-978 -951 -189 0
-979 -952 -187 0
-980 -953 -188 0
-981 -954 -189 0
-982 -955 -187 0
-983 -956 -188 0
-984 -957 -189 0
-985 -958 -187 0
-986 -959 -188 0
-987 -960 -189 0
-988 -961 -187 0
-989 -962 -188 0
-990 -963 -189 0
-991 -964 -187 0
-992 -965 -188 0
-993 -966 -189 0
-994 -967 -187 0
-995 -968 -188 0
-996 -969 -189 0
-997 -970 -187 0
-998 -971 -188 0
-999 -972 -189 0
-1000 -973 -187 0
-1001 -974 -188 0
-1002 -975 -189 0
-1003 -976 -187 0
-1004 -977 -188 0
-1005 -978 -189 0
-1006 -979 -187 0
-1007 -980 -188 0
-1008 -981 -189 0
-1009 -982 -187 0
-1010 -983 -188 0
-1011 -984 -189 0
-1012 -985 -187 0
-1013 -986 -188 0
-1014 -987 -189 0
-1015 -988 -187 0
-1016 -989 -188 0
-1017 -990 -189 0
-1018 -991 -187 0
-1019 -992 -188 0
-1020 -993 -189 0
-1021 -994 -187 0
-1022 -995 -188 0
-1023 -996 -189 0
-1024 -997 -187 0
-1025 -998 -188 0
-1026 -999 -189 0
-1027 -1000 -187 0
-1028 -1001 -188 0
-1029 -1002 -189 0
-208 -31 -1 0
-209 -32 -2 0
-210 -33 -3 0
-208 -34 -4 0
-209 -35 -5 0
-210 -36 -6 0
-208 -37 -7 0
-209 -38 -8 0
-210 -39 -9 0
-208 -40 -10 0
-209 -41 -11 0
-210 -42 -12 0
-208 -43 -13 0
-209 -44 -14 0
-210 -45 -15 0
-208 -46 -16 0
-209 -47 -17 0
-210 -48 -18 0
-208 -49 -19 0
-209 -50 -20 0
-210 -51 -21 0
-208 -52 -22 0
-209 -53 -23 0
-210 -54 -24 0
-208 -55 -25 0
-209 -56 -26 0
-210 -57 -27 0
-208 -58 -28 0
-209 -59 -29 0
-210 -60 -30 0
-208 -61 -31 0
-209 -62 -32 0
-210 -63 -33 0
-208 -64 -34 0
-209 -65 -35 0
-210 -66 -36 0
-208 -67 -37 0
-209 -68 -38 0
-210 -69 -39 0
-208 -70 -40 0
-209 -71 -41 0
-210 -72 -42 0
-208 -73 -43 0
-209 -74 -44 0
-210 -75 -45 0
-208 -76 -46 0
-209 -77 -47 0
-210 -78 -48 0
-208 -79 -49 0
-209 -80 -50 0
-210 -81 -51 0
-208 -82 -52 0
-209 -83 -53 0
-210 -84 -54 0
-208 -85 -55 0
-209 -86 -56 0
-210 -87 -57 0
-208 -88 -58 0
-209 -89 -59 0
-210 -90 -60 0
-208 -91 -61 0
-209 -92 -62 0
-210 -93 -63 0
-208 -94 -64 0
-209 -95 -65 0
-210 -96 -66 0
-208 -97 -67 0
-209 -98 -68 0
-210 -99 -69 0
-208 -100 -70 0
-209 -101 -71 0
-210 -102 -72 0
-208 -103 -73 0
-209 -104 -74 0
-210 -105 -75 0
-208 -106 -76 0
-209 -107 -77 0
-210 -108 -78 0
-208 -109 -79 0
-209 -110 -80 0
-210 -111 -81 0
-208 -112 -82 0
-209 -113 -83 0
-210 -114 -84 0
-208 -115 -85 0
-209 -116 -86 0
-210 -117 -87 0
-208 -118 -88 0
-209 -119 -89 0
-210 -120 -90 0
-208 -121 -91 0
-209 -122 -92 0
-210 -123 -93 0
-208 -124 -94 0
-209 -125 -95 0
-210 -126 -96 0
-208 -127 -97 0
-209 -128 -98 0
-210 -129 -99 0
-208 -130 -100 0
-209 -131 -101 0
-210 -132 -102 0
-208 -133 -103 0
-209 -134 -104 0
-210 -135 -105 0
-208 -136 -106 0
-209 -137 -107 0
-210 -138 -108 0
-208 -139 -109 0
-209 -140 -110 0
-210 -141 -111 0
-208 -142 -112 0
-209 -143 -113 0
-210 -144 -114 0
-208 -145 -115 0
-209 -146 -116 0
-210 -147 -117 0
-208 -148 -118 0
-209 -149 -119 0
-210 -150 -120 0
-208 -151 -121 0
-209 -152 -122 0
-210 -153 -123 0
-208 -154 -124 0
-209 -155 -125 0
-210 -156 -126 0
-208 -157 -127 0
-209 -158 -128 0
-210 -159 -129 0
-208 -160 -130 0
-209 -161 -131 0
-210 -162 -132 0
-208 -163 -133 0
-209 -164 -134 0
-210 -165 -135 0
-208 -166 -136 0
-209 -167 -137 0
-210 -168 -138 0
-208 -169 -139 0
-209 -170 -140 0
-210 -171 -141 0
-208 -172 -142 0
-209 -173 -143 0
-210 -174 -144 0
-208 -175 -145 0
-209 -176 -146 0
-210 -177 -147 0
-208 -178 -148 0
-209 -179 -149 0
-210 -180 -150 0
-208 -181 -151 0
-209 -182 -152 0
-210 -183 -153 0
-208 -184 -154 0
-209 -185 -155 0
-210 -186 -156 0
-208 -187 -157 0
-209 -188 -158 0
-210 -189 -159 0
-208 -190 -160 0
-209 -191 -161 0
-210 -192 -162 0
-208 -193 -163 0
-209 -194 -164 0
-210 -195 -165 0
-208 -196 -166 0
-209 -197 -167 0
-210 -198 -168 0
-208 -199 -169 0
-209 -200 -170 0
-210 -201 -171 0
-208 -202 -172 0
-209 -203 -173 0
-210 -204 -174 0
-208 -205 -175 0
-209 -206 -176 0
-210 -207 -177 0
-208 -178 0
-209 -179 0
-210 -180 0
-211 -208 -181 0
-212 -209 -182 0
-213 -210 -183 0
-214 -208 -184 0
-215 -209 -185 0
-216 -210 -186 0
-217 -208 -187 0
-218 -209 -188 0
-219 -210 -189 0
-220 -208 -190 0
-221 -209 -191 0
-222 -210 -192 0
-223 -208 -193 0
-224 -209 -194 0
-225 -210 -195 0
-226 -208 -196 0
-227 -209 -197 0
-228 -210 -198 0
-229 -208 -199 0
-230 -209 -200 0
-231 -210 -201 0
-232 -208 -202 0
-233 -209 -203 0
-234 -210 -204 0
-235 -208 -205 0
-236 -209 -206 0
-237 -210 -207 0
-238 -208 0
-239 -209 0
-240 -210 0
-241 -211 -208 0
-242 -212 -209 0
-243 -213 -210 0
-244 -214 -208 0
-245 -215 -209 0
-246 -216 -210 0
-247 -217 -208 0
-248 -218 -209 0
-249 -219 -210 0
-250 -220 -208 0
-251 -221 -209 0
-252 -222 -210 0
-253 -223 -208 0
-254 -224 -209 0
-255 -225 -210 0
-256 -226 -208 0
-257 -227 -209 0
-258 -228 -210 0
-259 -229 -208 0
-260 -230 -209 0
-261 -231 -210 0
-262 -232 -208 0
-263 -233 -209 0
-264 -234 -210 0
-265 -235 -208 0
-266 -236 -209 0
-267 -237 -210 0
-268 -238 -208 0
-269 -239 -209 0
-270 -240 -210 0
-271 -241 -208 0
-272 -242 -209 0
-273 -243 -210 0
-274 -244 -208 0
-275 -245 -209 0
-276 -246 -210 0
-277 -247 -208 0
-278 -248 -209 0
-279 -249 -210 0
-280 -250 -208 0
-281 -251 -209 0
-282 -252 -210 0
-283 -253 -208 0
-284 -254 -209 0
-285 -255 -210 0
-286 -256 -208 0
-287 -257 -209 0
-288 -258 -210 0
-289 -259 -208 0
-290 -260 -209 0
-291 -261 -210 0
-292 -262 -208 0
-293 -263 -209 0
-294 -264 -210 0
-295 -265 -208 0
-296 -266 -209 0
-297 -267 -210 0
-298 -268 -208 0
-299 -269 -209 0
-300 -270 -210 0
-301 -271 -208 0
-302 -272 -209 0
-303 -273 -210 0
-304 -274 -208 0
-305 -275 -209 0
-306 -276 -210 0
-307 -277 -208 0
-308 -278 -209 0
-309 -279 -210 0
-310 -280 -208 0
-311 -281 -209 0
-312 -282 -210 0
-313 -283 -208 0
-314 -284 -209 0
-315 -285 -210 0
-316 -286 -208 0
-317 -287 -209 0
-318 -288 -210 0
-319 -289 -208 0
-320 -290 -209 0
-321 -291 -210 0
-322 -292 -208 0
-323 -293 -209 0
-324 -294 -210 0
-325 -295 -208 0
-326 -296 -209 0
-327 -297 -210 0
-328 -298 -208 0
-329 -299 -209 0
-330 -300 -210 0
-331 -301 -208 0
-332 -302 -209 0
-333 -303 -210 0
-334 -304 -208 0
-335 -305 -209 0
-336 -306 -210 0
-337 -307 -208 0
-338 -308 -209 0
-339 -309 -210 0
-340 -310 -208 0
-341 -311 -209 0
-342 -312 -210 0
-343 -313 -208 0
-344 -314 -209 0
-345 -315 -210 0
-346 -316 -208 0
-347 -317 -209 0
-348 -318 -210 0
-349 -319 -208 0
-350 -320 -209 0
-351 -321 -210 0
-352 -322 -208 0
-353 -323 -209 0
-354 -324 -210 0
-355 -325 -208 0
-356 -326 -209 0
-357 -327 -210 0
-358 -328 -208 0
-359 -329 -209 0
-360 -330 -210 0
-361 -331 -208 0
-362 -332 -209 0
-363 -333 -210 0
-364 -334 -208 0
-365 -335 -209 0
-366 -336 -210 0
-367 -337 -208 0
-368 -338 -209 0
-369 -339 -210 0
-370 -340 -208 0
-371 -341 -209 0
-372 -342 -210 0
-373 -343 -208 0
-374 -344 -209 0
-375 -345 -210 0
-376 -346 -208 0
-377 -347 -209 0
-378 -348 -210 0
-379 -349 -208 0
-380 -350 -209 0
-381 -351 -210 0
-382 -352 -208 0
-383 -353 -209 0
-384 -354 -210 0
-385 -355 -208 0
-386 -356 -209 0
-387 -357 -210 0
-388 -358 -208 0
-389 -359 -209 0
-390 -360 -210 0
-391 -361 -208 0
-392 -362 -209 0
-393 -363 -210 0
-394 -364 -208 0
-395 -365 -209 0
-396 -366 -210 0
-397 -367 -208 0
-398 -368 -209 0
-399 -369 -210 0
-400 -370 -208 0
-401 -371 -209 0
-402 -372 -210 0
-403 -373 -208 0
-404 -374 -209 0
-405 -375 -210 0
-406 -376 -208 0
-407 -377 -209 0
-408 -378 -210 0
-409 -379 -208 0
-410 -380 -209 0
-411 -381 -210 0
-412 -382 -208 0
-413 -383 -209 0
-414 -384 -210 0
-415 -385 -208 0
-416 -386 -209 0
-417 -387 -210 0
-418 -388 -208 0
-419 -389 -209 0
-420 -390 -210 0
-421 -391 -208 0
-422 -392 -209 0
-423 -393 -210 0
-424 -394 -208 0
-425 -395 -209 0
-426 -396 -210 0
-427 -397 -208 0
-428 -398 -209 0
-429 -399 -210 0
-430 -400 -208 0
-431 -401 -209 0
-432 -402 -210 0
-433 -403 -208 0
-434 -404 -209 0
-435 -405 -210 0
-436 -406 -208 0
-437 -407 -209 0
-438 -408 -210 0
-439 -409 -208 0
-440 -410 -209 0
-441 -411 -210 0
-442 -412 -208 0
-443 -413 -209 0
-444 -414 -210 0
-445 -415 -208 0
-446 -416 -209 0
-447 -417 -210 0
-448 -418 -208 0
-449 -419 -209 0
-450 -420 -210 0
-451 -421 -208 0
-452 -422 -209 0
-453 -423 -210 0
-454 -424 -208 0
-455 -425 -209 0
-456 -426 -210 0
-457 -427 -208 0
-458 -428 -209 0
-459 -429 -210 0
-460 -430 -208 0
-461 -431 -209 0
-462 -432 -210 0
-463 -433 -208 0
-464 -434 -209 0
-465 -435 -210 0
-466 -436 -208 0
-467 -437 -209 0
-468 -438 -210 0
-469 -439 -208 0
-470 -440 -209 0
-471 -441 -210 0
-472 -442 -208 0
-473 -443 -209 0
-474 -444 -210 0
-475 -445 -208 0
-476 -446 -209 0
-477 -447 -210 0
-478 -448 -208 0
-479 -449 -209 0
-480 -450 -210 0
-481 -451 -208 0
-482 -452 -209 0
-483 -453 -210 0
-484 -454 -208 0
-485 -455 -209 0
-486 -456 -210 0
-487 -457 -208 0
-488 -458 -209 0
-489 -459 -210 0
-490 -460 -208 0
-491 -461 -209 0
-492 -462 -210 0
-493 -463 -208 0
-494 -464 -209 0
-495 -465 -210 0
-496 -466 -208 0
-497 -467 -209 0
-498 -468 -210 0
-499 -469 -208 0
-500 -470 -209 0
-501 -471 -210 0
-502 -472 -208 0
-503 -473 -209 0
-504 -474 -210 0
-505 -475 -208 0
-506 -476 -209 0
-507 -477 -210 0
-508 -478 -208 0
-509 -479 -209 0
-510 -480 -210 0
-511 -481 -208 0
-512 -482 -209 0
-513 -483 -210 0
-514 -484 -208 0
-515 -485 -209 0
-516 -486 -210 0
-517 -487 -208 0
-518 -488 -209 0
-519 -489 -210 0
-520 -490 -208 0
-521 -491 -209 0
-522 -492 -210 0
-523 -493 -208 0
-524 -494 -209 0
-525 -495 -210 0
-526 -496 -208 0
-527 -497 -209 0
-528 -498 -210 0
-529 -499 -208 0
-530 -500 -209 0
-531 -501 -210 0
-532 -502 -208 0
-533 -503 -209 0
-534 -504 -210 0
-535 -505 -208 0
-536 -506 -209 0
-537 -507 -210 0
-538 -508 -208 0
-539 -509 -209 0
-540 -510 -210 0
-541 -511 -208 0
-542 -512 -209 0
-543 -513 -210 0
-544 -514 -208 0
-545 -515 -209 0
-546 -516 -210 0
-547 -517 -208 0
-548 -518 -209 0
-549 -519 -210 0
-550 -520 -208 0
-551 -521 -209 0
-552 -522 -210 0
-553 -523 -208 0
-554 -524 -209 0
-555 -525 -210 0
-556 -526 -208 0
-557 -527 -209 0
-558 -528 -210 0
-559 -529 -208 0
-560 -530 -209 0
-561 -531 -210 0
-562 -532 -208 0
-563 -533 -209 0
-564 -534 -210 0
-565 -535 -208 0
-566 -536 -209 0
-567 -537 -210 0
-568 -538 -208 0
-569 -539 -209 0
-570 -540 -210 0
-571 -541 -208 0
-572 -542 -209 0
-573 -543 -210 0
-574 -544 -208 0
-575 -545 -209 0
-576 -546 -210 0
-577 -547 -208 0
-578 -548 -209 0
-579 -549 -210 0
-580 -550 -208 0
-581 -551 -209 0
-582 -552 -210 0
-583 -553 -208 0
-584 -554 -209 0
-585 -555 -210 0
-586 -556 -208 0
-587 -557 -209 0
-588 -558 -210 0
-589 -559 -208 0
-590 -560 -209 0
-591 -561 -210 0
-592 -562 -208 0
-593 -563 -209 0
-594 -564 -210 0
-595 -565 -208 0
-596 -566 -209 0
-597 -567 -210 0
-598 -568 -208 0
-599 -569 -209 0
-600 -570 -210 0
-601 -571 -208 0
-602 -572 -209 0
-603 -573 -210 0
-604 -574 -208 0
-605 -575 -209 0
-606 -576 -210 0
-607 -577 -208 0
-608 -578 -209 0
-609 -579 -210 0
-610 -580 -208 0
-611 -581 -209 0
-612 -582 -210 0
-613 -583 -208 0
-614 -584 -209 0
-615 -585 -210 0
-616 -586 -208 0
-617 -587 -209 0
-618 -588 -210 0
-619 -589 -208 0
-620 -590 -209 0
-621 -591 -210 0
-622 -592 -208 0
-623 -593 -209 0
-624 -594 -210 0
-625 -595 -208 0
-626 -596 -209 0
-627 -597 -210 0
-628 -598 -208 0
-629 -599 -209 0
-630 -600 -210 0
-631 -601 -208 0
-632 -602 -209 0
-633 -603 -210 0
-634 -604 -208 0
-635 -605 -209 0
-636 -606 -210 0
-637 -607 -208 0
-638 -608 -209 0
-639 -609 -210 0
-640 -610 -208 0
-641 -611 -209 0
-642 -612 -210 0
-643 -613 -208 0
-644 -614 -209 0
-645 -615 -210 0
-646 -616 -208 0
-647 -617 -209 0
-648 -618 -210 0
-649 -619 -208 0
-650 -620 -209 0
-651 -621 -210 0
-652 -622 -208 0
-653 -623 -209 0
-654 -624 -210 0
-655 -625 -208 0
-656 -626 -209 0
-657 -627 -210 0
-658 -628 -208 0
-659 -629 -209 0
-660 -630 -210 0
-661 -631 -208 0
-662 -632 -209 0
-663 -633 -210 0
-664 -634 -208 0
-665 -635 -209 0
-666 -636 -210 0
-667 -637 -208 0
-668 -638 -209 0
-669 -639 -210 0
-670 -640 -208 0
-671 -641 -209 0
-672 -642 -210 0
-673 -643 -208 0
-674 -644 -209 0
-675 -645 -210 0
-676 -646 -208 0
-677 -647 -209 0
-678 -648 -210 0
-679 -649 -208 0
-680 -650 -209 0
-681 -651 -210 0
-682 -652 -208 0
-683 -653 -209 0
-684 -654 -210 0
-685 -655 -208 0
-686 -656 -209 0
-687 -657 -210 0
-688 -658 -208 0
-689 -659 -209 0
-690 -660 -210 0
-691 -661 -208 0
-692 -662 -209 0
-693 -663 -210 0
-694 -664 -208 0
-695 -665 -209 0
-696 -666 -210 0
-697 -667 -208 0
-698 -668 -209 0
-699 -669 -210 0
-700 -670 -208 0
-701 -671 -209 0
-702 -672 -210 0
-703 -673 -208 0
-704 -674 -209 0
-705 -675 -210 0
-706 -676 -208 0
-707 -677 -209 0
-708 -678 -210 0
-709 -679 -208 0
-710 -680 -209 0
-711 -681 -210 0
-712 -682 -208 0
-713 -683 -209 0
-714 -684 -210 0
-715 -685 -208 0
-716 -686 -209 0
-717 -687 -210 0
-718 -688 -208 0
-719 -689 -209 0
-720 -690 -210 0
-721 -691 -208 0
-722 -692 -209 0
-723 -693 -210 0
-724 -694 -208 0
-725 -695 -209 0
-726 -696 -210 0
-727 -697 -208 0
-728 -698 -209 0
-729 -699 -210 0
-730 -700 -208 0
-731 -701 -209 0
-732 -702 -210 0
-733 -703 -208 0
-734 -704 -209 0
-735 -705 -210 0
-736 -706 -208 0
-737 -707 -209 0
-738 -708 -210 0
-739 -709 -208 0
-740 -710 -209 0
-741 -711 -210 0
-742 -712 -208 0
-743 -713 -209 0
-744 -714 -210 0
-745 -715 -208 0
-746 -716 -209 0
-747 -717 -210 0
-748 -718 -208 0
-749 -719 -209 0
-750 -720 -210 0
-751 -721 -208 0
-752 -722 -209 0
-753 -723 -210 0
-754 -724 -208 0
-755 -725 -209 0
-756 -726 -210 0
-757 -727 -208 0
-758 -728 -209 0
-759 -729 -210 0
-760 -730 -208 0
-761 -731 -209 0
-762 -732 -210 0
-763 -733 -208 0
-764 -734 -209 0
-765 -735 -210 0
-766 -736 -208 0
-767 -737 -209 0
-768 -738 -210 0
-769 -739 -208 0
-770 -740 -209 0
-771 -741 -210 0
-772 -742 -208 0
-773 -743 -209 0
-774 -744 -210 0
-775 -745 -208 0
-776 -746 -209 0
-777 -747 -210 0
-778 -748 -208 0
-779 -749 -209 0
-780 -750 -210 0
-781 -751 -208 0
-782 -752 -209 0
-783 -753 -210 0
-784 -754 -208 0
-785 -755 -209 0
-786 -756 -210 0
-787 -757 -208 0
-788 -758 -209 0
-789 -759 -210 0
-790 -760 -208 0
-791 -761 -209 0
-792 -762 -210 0
-793 -763 -208 0
-794 -764 -209 0
-795 -765 -210 0
-796 -766 -208 0
-797 -767 -209 0
-798 -768 -210 0
-799 -769 -208 0
-800 -770 -209 0
-801 -771 -210 0
-802 -772 -208 0
-803 -773 -209 0
-804 -774 -210 0
-805 -775 -208 0
-806 -776 -209 0
-807 -777 -210 0
-808 -778 -208 0
-809 -779 -209 0
-810 -780 -210 0
-811 -781 -208 0
-812 -782 -209 0
-813 -783 -210 0
-814 -784 -208 0
-815 -785 -209 0
-816 -786 -210 0
-817 -787 -208 0
-818 -788 -209 0
-819 -789 -210 0
-820 -790 -208 0
-821 -791 -209 0
-822 -792 -210 0
-823 -793 -208 0
-824 -794 -209 0
-825 -795 -210 0
-826 -796 -208 0
-827 -797 -209 0
-828 -798 -210 0
-829 -799 -208 0
-830 -800 -209 0
-831 -801 -210 0
-832 -802 -208 0
-833 -803 -209 0
-834 -804 -210 0
-835 -805 -208 0
-836 -806 -209 0
-837 -807 -210 0
-838 -808 -208 0
-839 -809 -209 0
-840 -810 -210 0
-841 -811 -208 0
-842 -812 -209 0
-843 -813 -210 0
-844 -814 -208 0
-845 -815 -209 0
-846 -816 -210 0
-847 -817 -208 0
-848 -818 -209 0
-849 -819 -210 0
-850 -820 -208 0
-851 -821 -209 0
-852 -822 -210 0
-853 -823 -208 0
-854 -824 -209 0
-855 -825 -210 0
-856 -826 -208 0
-857 -827 -209 0
-858 -828 -210 0
-859 -829 -208 0
-860 -830 -209 0
-861 -831 -210 0
-862 -832 -208 0
-863 -833 -209 0
-864 -834 -210 0
-865 -835 -208 0
-866 -836 -209 0
-867 -837 -210 0
-868 -838 -208 0
-869 -839 -209 0
-870 -840 -210 0
-871 -841 -208 0
-872 -842 -209 0
-873 -843 -210 0
-874 -844 -208 0
-875 -845 -209 0
-876 -846 -210 0
-877 -847 -208 0
-878 -848 -209 0
-879 -849 -210 0
-880 -850 -208 0
-881 -851 -209 0
-882 -852 -210 0
-883 -853 -208 0
-884 -854 -209 0
-885 -855 -210 0
-886 -856 -208 0
-887 -857 -209 0
-888 -858 -210 0
-889 -859 -208 0
-890 -860 -209 0
-891 -861 -210 0
-892 -862 -208 0
-893 -863 -209 0
-894 -864 -210 0
-895 -865 -208 0
-896 -866 -209 0
-897 -867 -210 0
-898 -868 -208 0
-899 -869 -209 0
-900 -870 -210 0
-901 -871 -208 0
-902 -872 -209 0
-903 -873 -210 0
-904 -874 -208 0
-905 -875 -209 0
-906 -876 -210 0
-907 -877 -208 0
-908 -878 -209 0
-909 -879 -210 0
-910 -880 -208 0
-911 -881 -209 0
-912 -882 -210 0
-913 -883 -208 0
-914 -884 -209 0
-915 -885 -210 0
-916 -886 -208 0
-917 -887 -209 0
-918 -888 -210 0
-919 -889 -208 0
-920 -890 -209 0
-921 -891 -210 0
-922 -892 -208 0
-923 -893 -209 0
-924 -894 -210 0
-925 -895 -208 0
-926 -896 -209 0
-927 -897 -210 0
-928 -898 -208 0
-929 -899 -209 0
-930 -900 -210 0
-931 -901 -208 0
-932 -902 -209 0
-933 -903 -210 0
-934 -904 -208 0
-935 -905 -209 0
-936 -906 -210 0
-937 -907 -208 0
-938 -908 -209 0
-939 -909 -210 0
-940 -910 -208 0
-941 -911 -209 0
-942 -912 -210 0
-943 -913 -208 0
-944 -914 -209 0
-945 -915 -210 0
-946 -916 -208 0
-947 -917 -209 0
-948 -918 -210 0
-949 -919 -208 0
-950 -920 -209 0
-951 -921 -210 0
-952 -922 -208 0
-953 -923 -209 0
-954 -924 -210 0
-955 -925 -208 0
-956 -926 -209 0
-957 -927 -210 0
-958 -928 -208 0
-959 -929 -209 0
-960 -930 -210 0
-961 -931 -208 0
-962 -932 -209 0
-963 -933 -210 0
-964 -934 -208 0
-965 -935 -209 0
-966 -936 -210 0
-967 -937 -208 0
-968 -938 -209 0
-969 -939 -210 0
-970 -940 -208 0
-971 -941 -209 0
-972 -942 -210 0
-973 -943 -208 0
-974 -944 -209 0
-975 -945 -210 0
-976 -946 -208 0
-977 -947 -209 0
-978 -948 -210 0
-979 -949 -208 0
-980 -950 -209 0
-981 -951 -210 0
-982 -952 -208 0
-983 -953 -209 0
-984 -954 -210 0
-985 -955 -208 0
-986 -956 -209 0
-987 -957 -210 0
-988 -958 -208 0
-989 -959 -209 0
-990 -960 -210 0
-991 -961 -208 0
-992 -962 -209 0
-993 -963 -210 0
-994 -964 -208 0
-995 -965 -209 0
-996 -966 -210 0
-997 -967 -208 0
-998 -968 -209 0
-999 -969 -210 0
-1000 -970 -208 0
-1001 -971 -209 0
-1002 -972 -210 0
-1003 -973 -208 0
-1004 -974 -209 0
-1005 -975 -210 0
-1006 -976 -208 0
-1007 -977 -209 0
-1008 -978 -210 0
-1009 -979 -208 0
-1010 -980 -209 0
-1011 -981 -210 0
-1012 -982 -208 0
-1013 -983 -209 0
-1014 -984 -210 0
-1015 -985 -208 0
-1016 -986 -209 0
-1017 -987 -210 0
-1018 -988 -208 0
-1019 -989 -209 0
-1020 -990 -210 0
-1021 -991 -208 0
-1022 -992 -209 0
-1023 -993 -210 0
-1024 -994 -208 0
-1025 -995 -209 0
-1026 -996 -210 0
-1027 -997 -208 0
-1028 -998 -209 0
-1029 -999 -210 0
-229 -34 -1 0
-230 -35 -2 0
-231 -36 -3 0
-229 -37 -4 0
-230 -38 -5 0
-231 -39 -6 0
-229 -40 -7 0
-230 -41 -8 0
-231 -42 -9 0
-229 -43 -10 0
-230 -44 -11 0
-231 -45 -12 0
-229 -46 -13 0
-230 -47 -14 0
-231 -48 -15 0
-229 -49 -16 0
-230 -50 -17 0
-231 -51 -18 0
-229 -52 -19 0
-230 -53 -20 0
-231 -54 -21 0
-229 -55 -22 0
-230 -56 -23 0
-231 -57 -24 0
-229 -58 -25 0
-230 -59 -26 0
-231 -60 -27 0
-229 -61 -28 0
-230 -62 -29 0
-231 -63 -30 0
-229 -64 -31 0
-230 -65 -32 0
-231 -66 -33 0
-229 -67 -34 0
-230 -68 -35 0
-231 -69 -36 0
-229 -70 -37 0
-230 -71 -38 0
-231 -72 -39 0
-229 -73 -40 0
-230 -74 -41 0
-231 -75 -42 0
-229 -76 -43 0
-230 -77 -44 0
-231 -78 -45 0
-229 -79 -46 0
-230 -80 -47 0
-231 -81 -48 0
-229 -82 -49 0
-230 -83 -50 0
-231 -84 -51 0
-229 -85 -52 0
-230 -86 -53 0
-231 -87 -54 0
-229 -88 -55 0
-230 -89 -56 0
-231 -90 -57 0
-229 -91 -58 0
-230 -92 -59 0
-231 -93 -60 0
-229 -94 -61 0
-230 -95 -62 0
-231 -96 -63 0
-229 -97 -64 0
-230 -98 -65 0
-231 -99 -66 0
-229 -100 -67 0
-230 -101 -68 0
-231 -102 -69 0
-229 -103 -70 0
-230 -104 -71 0
-231 -105 -72 0
-229 -106 -73 0
-230 -107 -74 0
-231 -108 -75 0
-229 -109 -76 0
-230 -110 -77 0
-231 -111 -78 0
-229 -112 -79 0
-230 -113 -80 0
-231 -114 -81 0
-229 -115 -82 0
-230 -116 -83 0
-231 -117 -84 0
-229 -118 -85 0
-230 -119 -86 0
-231 -120 -87 0
-229 -121 -88 0
-230 -122 -89 0
-231 -123 -90 0
-229 -124 -91 0
-230 -125 -92 0
-231 -126 -93 0
-229 -127 -94 0
-230 -128 -95 0
-231 -129 -96 0
-229 -130 -97 0
-230 -131 -98 0
-231 -132 -99 0
-229 -133 -100 0
-230 -134 -101 0
-231 -135 -102 0
-229 -136 -103 0
-230 -137 -104 0
-231 -138 -105 0
-229 -139 -106 0
-230 -140 -107 0
-231 -141 -108 0
-229 -142 -109 0
-230 -143 -110 0
-231 -144 -111 0
-229 -145 -112 0
-230 -146 -113 0
-231 -147 -114 0
-229 -148 -115 0
-230 -149 -116 0
-231 -150 -117 0
-229 -151 -118 0
-230 -152 -119 0
-231 -153 -120 0
-229 -154 -121 0
-230 -155 -122 0
-231 -156 -123 0
-229 -157 -124 0
-230 -158 -125 0
-231 -159 -126 0
-229 -160 -127 0
-230 -161 -128 0
-231 -162 -129 0
-229 -163 -130 0
-230 -164 -131 0
-231 -165 -132 0
-229 -166 -133 0
-230 -167 -134 0
-231 -168 -135 0
-229 -169 -136 0
-230 -170 -137 0
-231 -171 -138 0
-229 -172 -139 0
-230 -173 -140 0
-231 -174 -141 0
-229 -175 -142 0
-230 -176 -143 0
-231 -177 -144 0
-229 -178 -145 0
-230 -179 -146 0
-231 -180 -147 0
-229 -181 -148 0
-230 -182 -149 0
-231 -183 -150 0
-229 -184 -151 0
-230 -185 -152 0
-231 -186 -153 0
-229 -187 -154 0
-230 -188 -155 0
-231 -189 -156 0
-229 -190 -157 0
-230 -191 -158 0
-231 -192 -159 0
-229 -193 -160 0
-230 -194 -161 0
-231 -195 -162 0
-229 -196 -163 0
-230 -197 -164 0
-231 -198 -165 0
-229 -199 -166 0
-230 -200 -167 0
-231 -201 -168 0
-229 -202 -169 0
-230 -203 -170 0
-231 -204 -171 0
-229 -205 -172 0
-230 -206 -173 0
-231 -207 -174 0
-229 -208 -175 0
-230 -209 -176 0
-231 -210 -177 0
-229 -211 -178 0
-230 -212 -179 0
-231 -213 -180 0
-229 -214 -181 0
-230 -215 -182 0
-231 -216 -183 0
-229 -217 -184 0
-230 -218 -185 0
-231 -219 -186 0
-229 -220 -187 0
-230 -221 -188 0
-231 -222 -189 0
-229 -223 -190 0
-230 -224 -191 0
-231 -225 -192 0
-229 -226 -193 0
-230 -227 -194 0
-231 -228 -195 0
-229 -196 0
-230 -197 0
-231 -198 0
-232 -229 -199 0
-233 -230 -200 0
-234 -231 -201 0
-235 -229 -202 0
-236 -230 -203 0
-237 -231 -204 0
-238 -229 -205 0
-239 -230 -206 0
-240 -231 -207 0
-241 -229 -208 0
-242 -230 -209 0
-243 -231 -210 0
-244 -229 -211 0
-245 -230 -212 0
-246 -231 -213 0
-247 -229 -214 0
-248 -230 -215 0
-249 -231 -216 0
-250 -229 -217 0
-251 -230 -218 0
-252 -231 -219 0
-253 -229 -220 0
-254 -230 -221 0
-255 -231 -222 0
-256 -229 -223 0
-257 -230 -224 0
-258 -231 -225 0
-259 -229 -226 0
-260 -230 -227 0
-261 -231 -228 0
-262 -229 0
-263 -230 0
-264 -231 0
-265 -232 -229 0
-266 -233 -230 0
-267 -234 -231 0
-268 -235 -229 0
-269 -236 -230 0
-270 -237 -231 0
-271 -238 -229 0
-272 -239 -230 0
-273 -240 -231 0
-274 -241 -229 0
-275 -242 -230 0
-276 -243 -231 0
-277 -244 -229 0
-278 -245 -230 0
-279 -246 -231 0
-280 -247 -229 0
-281 -248 -230 0
-282 -249 -231 0
-283 -250 -229 0
-284 -251 -230 0
-285 -252 -231 0
-286 -253 -229 0
-287 -254 -230 0
-288 -255 -231 0
-289 -256 -229 0
-290 -257 -230 0
-291 -258 -231 0
-292 -259 -229 0
-293 -260 -230 0
-294 -261 -231 0
-295 -262 -229 0
-296 -263 -230 0
-297 -264 -231 0
-298 -265 -229 0
-299 -266 -230 0
-300 -267 -231 0
-301 -268 -229 0
-302 -269 -230 0
-303 -270 -231 0
-304 -271 -229 0
-305 -272 -230 0
-306 -273 -231 0
-307 -274 -229 0
-308 -275 -230 0
-309 -276 -231 0
-310 -277 -229 0
-311 -278 -230 0
-312 -279 -231 0
-313 -280 -229 0
-314 -281 -230 0
-315 -282 -231 0
-316 -283 -229 0
-317 -284 -230 0
-318 -285 -231 0
-319 -286 -229 0
-320 -287 -230 0
-321 -288 -231 0
-322 -289 -229 0
-323 -290 -230 0
-324 -291 -231 0
-325 -292 -229 0
-326 -293 -230 0
-327 -294 -231 0
-328 -295 -229 0
-329 -296 -230 0
-330 -297 -231 0
-331 -298 -229 0
-332 -299 -230 0
-333 -300 -231 0
-334 -301 -229 0
-335 -302 -230 0
-336 -303 -231 0
-337 -304 -229 0
-338 -305 -230 0
-339 -306 -231 0
-340 -307 -229 0
-341 -308 -230 0
-342 -309 -231 0
-343 -310 -229 0
-344 -311 -230 0
-345 -312 -231 0
-346 -313 -229 0
-347 -314 -230 0
-348 -315 -231 0
-349 -316 -229 0
-350 -317 -230 0
-351 -318 -231 0
-352 -319 -229 0
-353 -320 -230 0
-354 -321 -231 0
-355 -322 -229 0
-356 -323 -230 0
-357 -324 -231 0
-358 -325 -229 0
-359 -326 -230 0
-360 -327 -231 0
-361 -328 -229 0
-362 -329 -230 0
-363 -330 -231 0
-364 -331 -229 0
-365 -332 -230 0
-366 -333 -231 0
-367 -334 -229 0
-368 -335 -230 0
-369 -336 -231 0
-370 -337 -229 0
-371 -338 -230 0
-372 -339 -231 0
-373 -340 -229 0
-374 -341 -230 0
-375 -342 -231 0
-376 -343 -229 0
-377 -344 -230 0
-378 -345 -231 0
-379 -346 -229 0
-380 -347 -230 0
-381 -348 -231 0
-382 -349 -229 0
-383 -350 -230 0
-384 -351 -231 0
-385 -352 -229 0
-386 -353 -230 0
-387 -354 -231 0
-388 -355 -229 0
-389 -356 -230 0
-390 -357 -231 0
-391 -358 -229 0
-392 -359 -230 0
-393 -360 -231 0
-394 -361 -229 0
-395 -362 -230 0
-396 -363 -231 0
-397 -364 -229 0
-398 -365 -230 0
-399 -366 -231 0
-400 -367 -229 0
-401 -368 -230 0
-402 -369 -231 0
-403 -370 -229 0
-404 -371 -230 0
-405 -372 -231 0
-406 -373 -229 0
-407 -374 -230 0
-408 -375 -231 0
-409 -376 -229 0
-410 -377 -230 0
-411 -378 -231 0
-412 -379 -229 0
-413 -380 -230 0
-414 -381 -231 0
-415 -382 -229 0
-416 -383 -230 0
-417 -384 -231 0
-418 -385 -229 0
-419 -386 -230 0
-420 -387 -231 0
-421 -388 -229 0
-422 -389 -230 0
-423 -390 -231 0
-424 -391 -229 0
-425 -392 -230 0
-426 -393 -231 0
-427 -394 -229 0
-428 -395 -230 0
-429 -396 -231 0
-430 -397 -229 0
-431 -398 -230 0
-432 -399 -231 0
-433 -400 -229 0
-434 -401 -230 0
-435 -402 -231 0
-436 -403 -229 0
-437 -404 -230 0
-438 -405 -231 0
-439 -406 -229 0
-440 -407 -230 0
-441 -408 -231 0
-442 -409 -229 0
-443 -410 -230 0
-444 -411 -231 0
-445 -412 -229 0
-446 -413 -230 0
-447 -414 -231 0
-448 -415 -229 0
-449 -416 -230 0
-450 -417 -231 0
-451 -418 -229 0
-452 -419 -230 0
-453 -420 -231 0
-454 -421 -229 0
-455 -422 -230 0
-456 -423 -231 0
-457 -424 -229 0
-458 -425 -230 0
-459 -426 -231 0
-460 -427 -229 0
-461 -428 -230 0
-462 -429 -231 0
-463 -430 -229 0
-464 -431 -230 0
-465 -432 -231 0
-466 -433 -229 0
-467 -434 -230 0
-468 -435 -231 0
-469 -436 -229 0
-470 -437 -230 0
-471 -438 -231 0
-472 -439 -229 0
-473 -440 -230 0
-474 -441 -231 0
-475 -442 -229 0
-476 -443 -230 0
-477 -444 -231 0
-478 -445 -229 0
-479 -446 -230 0
-480 -447 -231 0
-481 -448 -229 0
-482 -449 -230 0
-483 -450 -231 0
-484 -451 -229 0
-485 -452 -230 0
-486 -453 -231 0
-487 -454 -229 0
-488 -455 -230 0
-489 -456 -231 0
-490 -457 -229 0
-491 -458 -230 0
-492 -459 -231 0
-493 -460 -229 0
-494 -461 -230 0
-495 -462 -231 0
-496 -463 -229 0
-497 -464 -230 0
-498 -465 -231 0
-499 -466 -229 0
-500 -467 -230 0
-501 -468 -231 0
-502 -469 -229 0
-503 -470 -230 0
-504 -471 -231 0
-505 -472 -229 0
-506 -473 -230 0
-507 -474 -231 0
-508 -475 -229 0
-509 -476 -230 0
-510 -477 -231 0
-511 -478 -229 0
-512 -479 -230 0
-513 -480 -231 0
-514 -481 -229 0
-515 -482 -230 0
-516 -483 -231 0
-517 -484 -229 0
-518 -485 -230 0
-519 -486 -231 0
-520 -487 -229 0
-521 -488 -230 0
-522 -489 -231 0
-523 -490 -229 0
-524 -491 -230 0
-525 -492 -231 0
-526 -493 -229 0
-527 -494 -230 0
-528 -495 -231 0
-529 -496 -229 0
-530 -497 -230 0
-531 -498 -231 0
-532 -499 -229 0
-533 -500 -230 0
-534 -501 -231 0
-535 -502 -229 0
-536 -503 -230 0
-537 -504 -231 0
-538 -505 -229 0
-539 -506 -230 0
-540 -507 -231 0
-541 -508 -229 0
-542 -509 -230 0
-543 -510 -231 0
-544 -511 -229 0
-545 -512 -230 0
-546 -513 -231 0
-547 -514 -229 0
-548 -515 -230 0
-549 -516 -231 0
-550 -517 -229 0
-551 -518 -230 0
-552 -519 -231 0
-553 -520 -229 0
-554 -521 -230 0
-555 -522 -231 0
-556 -523 -229 0
-557 -524 -230 0
-558 -525 -231 0
-559 -526 -229 0
-560 -527 -230 0
-561 -528 -231 0
-562 -529 -229 0
-563 -530 -230 0
-564 -531 -231 0
-565 -532 -229 0
-566 -533 -230 0
-567 -534 -231 0
-568 -535 -229 0
-569 -536 -230 0
-570 -537 -231 0
-571 -538 -229 0
-572 -539 -230 0
-573 -540 -231 0
-574 -541 -229 0
-575 -542 -230 0
-576 -543 -231 0
-577 -544 -229 0
-578 -545 -230 0
-579 -546 -231 0
-580 -547 -229 0
-581 -548 -230 0
-582 -549 -231 0
-583 -550 -229 0
-584 -551 -230 0
-585 -552 -231 0
-586 -553 -229 0
-587 -554 -230 0
-588 -555 -231 0
-589 -556 -229 0
-590 -557 -230 0
-591 -558 -231 0
-592 -559 -229 0
-593 -560 -230 0
-594 -561 -231 0
-595 -562 -229 0
-596 -563 -230 0
-597 -564 -231 0
-598 -565 -229 0
-599 -566 -230 0
-600 -567 -231 0
-601 -568 -229 0
-602 -569 -230 0
-603 -570 -231 0
-604 -571 -229 0
-605 -572 -230 0
-606 -573 -231 0
-607 -574 -229 0
-608 -575 -230 0
-609 -576 -231 0
-610 -577 -229 0
-611 -578 -230 0
-612 -579 -231 0
-613 -580 -229 0
-614 -581 -230 0
-615 -582 -231 0
-616 -583 -229 0
-617 -584 -230 0
-618 -585 -231 0
-619 -586 -229 0
-620 -587 -230 0
-621 -588 -231 0
-622 -589 -229 0
-623 -590 -230 0
-624 -591 -231 0
-625 -592 -229 0
-626 -593 -230 0
-627 -594 -231 0
-628 -595 -229 0
-629 -596 -230 0
-630 -597 -231 0
-631 -598 -229 0
-632 -599 -230 0
-633 -600 -231 0
-634 -601 -229 0
-635 -602 -230 0
-636 -603 -231 0
-637 -604 -229 0
-638 -605 -230 0
-639 -606 -231 0
-640 -607 -229 0
-641 -608 -230 0
-642 -609 -231 0
-643 -610 -229 0
-644 -611 -230 0
-645 -612 -231 0
-646 -613 -229 0
-647 -614 -230 0
-648 -615 -231 0
-649 -616 -229 0
-650 -617 -230 0
-651 -618 -231 0
-652 -619 -229 0
-653 -620 -230 0
-654 -621 -231 0
-655 -622 -229 0
-656 -623 -230 0
-657 -624 -231 0
-658 -625 -229 0
-659 -626 -230 0
-660 -627 -231 0
-661 -628 -229 0
-662 -629 -230 0
-663 -630 -231 0
-664 -631 -229 0
-665 -632 -230 0
-666 -633 -231 0
-667 -634 -229 0
-668 -635 -230 0
-669 -636 -231 0
-670 -637 -229 0
-671 -638 -230 0
-672 -639 -231 0
-673 -640 -229 0
-674 -641 -230 0
-675 -642 -231 0
-676 -643 -229 0
-677 -644 -230 0
-678 -645 -231 0
-679 -646 -229 0
-680 -647 -230 0
-681 -648 -231 0
-682 -649 -229 0
-683 -650 -230 0
-684 -651 -231 0
-685 -652 -229 0
-686 -653 -230 0
-687 -654 -231 0
-688 -655 -229 0
-689 -656 -230 0
-690 -657 -231 0
-691 -658 -229 0
-692 -659 -230 0
-693 -660 -231 0
-694 -661 -229 0
-695 -662 -230 0
-696 -663 -231 0
-697 -664 -229 0
-698 -665 -230 0
-699 -666 -231 0
-700 -667 -229 0
-701 -668 -230 0
-702 -669 -231 0
-703 -670 -229 0
-704 -671 -230 0
-705 -672 -231 0
-706 -673 -229 0
-707 -674 -230 0
-708 -675 -231 0
-709 -676 -229 0
-710 -677 -230 0
-711 -678 -231 0
-712 -679 -229 0
-713 -680 -230 0
-714 -681 -231 0
-715 -682 -229 0
-716 -683 -230 0
-717 -684 -231 0
-718 -685 -229 0
-719 -686 -230 0
-720 -687 -231 0
-721 -688 -229 0
-722 -689 -230 0
-723 -690 -231 0
-724 -691 -229 0
-725 -692 -230 0
-726 -693 -231 0
-727 -694 -229 0
-728 -695 -230 0
-729 -696 -231 0
-730 -697 -229 0
-731 -698 -230 0
-732 -699 -231 0
-733 -700 -229 0
-734 -701 -230 0
-735 -702 -231 0
-736 -703 -229 0
-737 -704 -230 0
-738 -705 -231 0
-739 -706 -229 0
-740 -707 -230 0
-741 -708 -231 0
-742 -709 -229 0
-743 -710 -230 0
-744 -711 -231 0
-745 -712 -229 0
-746 -713 -230 0
-747 -714 -231 0
-748 -715 -229 0
-749 -716 -230 0
-750 -717 -231 0
-751 -718 -229 0
-752 -719 -230 0
-753 -720 -231 0
-754 -721 -229 0
-755 -722 -230 0
-756 -723 -231 0
-757 -724 -229 0
-758 -725 -230 0
-759 -726 -231 0
-760 -727 -229 0
-761 -728 -230 0
-762 -729 -231 0
-763 -730 -229 0
-764 -731 -230 0
-765 -732 -231 0
-766 -733 -229 0
-767 -734 -230 0
-768 -735 -231 0
-769 -736 -229 0
-770 -737 -230 0
-771 -738 -231 0
-772 -739 -229 0
-773 -740 -230 0
-774 -741 -231 0
-775 -742 -229 0
-776 -743 -230 0
-777 -744 -231 0
-778 -745 -229 0
-779 -746 -230 0
-780 -747 -231 0
-781 -748 -229 0
-782 -749 -230 0
-783 -750 -231 0
-784 -751 -229 0
-785 -752 -230 0
-786 -753 -231 0
-787 -754 -229 0
-788 -755 -230 0
-789 -756 -231 0
-790 -757 -229 0
-791 -758 -230 0
-792 -759 -231 0
-793 -760 -229 0
-794 -761 -230 0
-795 -762 -231 0
-796 -763 -229 0
-797 -764 -230 0
-798 -765 -231 0
-799 -766 -229 0
-800 -767 -230 0
-801 -768 -231 0
-802 -769 -229 0
-803 -770 -230 0
-804 -771 -231 0
-805 -772 -229 0
-806 -773 -230 0
-807 -774 -231 0
-808 -775 -229 0
-809 -776 -230 0
-810 -777 -231 0
-811 -778 -229 0
-812 -779 -230 0
-813 -780 -231 0
-814 -781 -229 0
-815 -782 -230 0
-816 -783 -231 0
-817 -784 -229 0
-818 -785 -230 0
-819 -786 -231 0
-820 -787 -229 0
-821 -788 -230 0
-822 -789 -231 0
-823 -790 -229 0
-824 -791 -230 0
-825 -792 -231 0
-826 -793 -229 0
-827 -794 -230 0
-828 -795 -231 0
-829 -796 -229 0
-830 -797 -230 0
-831 -798 -231 0
-832 -799 -229 0
-833 -800 -230 0
-834 -801 -231 0
-835 -802 -229 0
-836 -803 -230 0
-837 -804 -231 0
-838 -805 -229 0
-839 -806 -230 0
-840 -807 -231 0
-841 -808 -229 0
-842 -809 -230 0
-843 -810 -231 0
-844 -811 -229 0
-845 -812 -230 0
-846 -813 -231 0
-847 -814 -229 0
-848 -815 -230 0
-849 -816 -231 0
-850 -817 -229 0
-851 -818 -230 0
-852 -819 -231 0
-853 -820 -229 0
-854 -821 -230 0
-855 -822 -231 0
-856 -823 -229 0
-857 -824 -230 0
-858 -825 -231 0
-859 -826 -229 0
-860 -827 -230 0
-861 -828 -231 0
-862 -829 -229 0
-863 -830 -230 0
-864 -831 -231 0
-865 -832 -229 0
-866 -833 -230 0
-867 -834 -231 0
-868 -835 -229 0
-869 -836 -230 0
-870 -837 -231 0
-871 -838 -229 0
-872 -839 -230 0
-873 -840 -231 0
-874 -841 -229 0
-875 -842 -230 0
-876 -843 -231 0
-877 -844 -229 0
-878 -845 -230 0
-879 -846 -231 0
-880 -847 -229 0
-881 -848 -230 0
-882 -849 -231 0
-883 -850 -229 0
-884 -851 -230 0
-885 -852 -231 0
-886 -853 -229 0
-887 -854 -230 0
-888 -855 -231 0
-889 -856 -229 0
-890 -857 -230 0
-891 -858 -231 0
-892 -859 -229 0
-893 -860 -230 0
-894 -861 -231 0
-895 -862 -229 0
-896 -863 -230 0
-897 -864 -231 0
-898 -865 -229 0
-899 -866 -230 0
-900 -867 -231 0
-901 -868 -229 0
-902 -869 -230 0
-903 -870 -231 0
-904 -871 -229 0
-905 -872 -230 0
-906 -873 -231 0
-907 -874 -229 0
-908 -875 -230 0
-909 -876 -231 0
-910 -877 -229 0
-911 -878 -230 0
-912 -879 -231 0
-913 -880 -229 0
-914 -881 -230 0
-915 -882 -231 0
-916 -883 -229 0
-917 -884 -230 0
-918 -885 -231 0
-919 -886 -229 0
-920 -887 -230 0
-921 -888 -231 0
-922 -889 -229 0
-923 -890 -230 0
-924 -891 -231 0
-925 -892 -229 0
-926 -893 -230 0
-927 -894 -231 0
-928 -895 -229 0
-929 -896 -230 0
-930 -897 -231 0
-931 -898 -229 0
-932 -899 -230 0
-933 -900 -231 0
-934 -901 -229 0
-935 -902 -230 0
-936 -903 -231 0
-937 -904 -229 0
-938 -905 -230 0
-939 -906 -231 0
-940 -907 -229 0
-941 -908 -230 0
-942 -909 -231 0
-943 -910 -229 0
-944 -911 -230 0
-945 -912 -231 0
-946 -913 -229 0
-947 -914 -230 0
-948 -915 -231 0
-949 -916 -229 0
-950 -917 -230 0
-951 -918 -231 0
-952 -919 -229 0
-953 -920 -230 0
-954 -921 -231 0
-955 -922 -229 0
-956 -923 -230 0
-957 -924 -231 0
-958 -925 -229 0
-959 -926 -230 0
-960 -927 -231 0
-961 -928 -229 0
-962 -929 -230 0
-963 -930 -231 0
-964 -931 -229 0
-965 -932 -230 0
-966 -933 -231 0
-967 -934 -229 0
-968 -935 -230 0
-969 -936 -231 0
-970 -937 -229 0
-971 -938 -230 0
-972 -939 -231 0
-973 -940 -229 0
-974 -941 -230 0
-975 -942 -231 0
-976 -943 -229 0
-977 -944 -230 0
-978 -945 -231 0
-979 -946 -229 0
-980 -947 -230 0
-981 -948 -231 0
-982 -949 -229 0
-983 -950 -230 0
-984 -951 -231 0
-985 -952 -229 0
-986 -953 -230 0
-987 -954 -231 0
-988 -955 -229 0
-989 -956 -230 0
-990 -957 -231 0
-991 -958 -229 0
-992 -959 -230 0
-993 -960 -231 0
-994 -961 -229 0
-995 -962 -230 0
-996 -963 -231 0
-997 -964 -229 0
-998 -965 -230 0
-999 -966 -231 0
-1000 -967 -229 0
-1001 -968 -230 0
-1002 -969 -231 0
-1003 -970 -229 0
-1004 -971 -230 0
-1005 -972 -231 0
-1006 -973 -229 0
-1007 -974 -230 0
-1008 -975 -231 0
-1009 -976 -229 0
-1010 -977 -230 0
-1011 -978 -231 0
-1012 -979 -229 0
-1013 -980 -230 0
-1014 -981 -231 0
-1015 -982 -229 0
-1016 -983 -230 0
-1017 -984 -231 0
-1018 -985 -229 0
-1019 -986 -230 0
-1020 -987 -231 0
-1021 -988 -229 0
-1022 -989 -230 0
-1023 -990 -231 0
-1024 -991 -229 0
-1025 -992 -230 0
-1026 -993 -231 0
-1027 -994 -229 0
-1028 -995 -230 0
-1029 -996 -231 0
-250 -37 -1 0
-251 -38 -2 0
-252 -39 -3 0
-250 -40 -4 0
-251 -41 -5 0
-252 -42 -6 0
-250 -43 -7 0
-251 -44 -8 0
-252 -45 -9 0
-250 -46 -10 0
-251 -47 -11 0
-252 -48 -12 0
-250 -49 -13 0
-251 -50 -14 0
-252 -51 -15 0
-250 -52 -16 0
-251 -53 -17 0
-252 -54 -18 0
-250 -55 -19 0
-251 -56 -20 0
-252 -57 -21 0
-250 -58 -22 0
-251 -59 -23 0
-252 -60 -24 0
-250 -61 -25 0
-251 -62 -26 0
-252 -63 -27 0
-250 -64 -28 0
-251 -65 -29 0
-252 -66 -30 0
-250 -67 -31 0
-251 -68 -32 0
-252 -69 -33 0
-250 -70 -34 0
-251 -71 -35 0
-252 -72 -36 0
-250 -73 -37 0
-251 -74 -38 0
-252 -75 -39 0
-250 -76 -40 0
-251 -77 -41 0
-252 -78 -42 0
-250 -79 -43 0
-251 -80 -44 0
-252 -81 -45 0
-250 -82 -46 0
-251 -83 -47 0
-252 -84 -48 0
-250 -85 -49 0
-251 -86 -50 0
-252 -87 -51 0
-250 -88 -52 0
-251 -89 -53 0
-252 -90 -54 0
-250 -91 -55 0
-251 -92 -56 0
-252 -93 -57 0
-250 -94 -58 0
-251 -95 -59 0
-252 -96 -60 0
-250 -97 -61 0
-251 -98 -62 0
-252 -99 -63 0
-250 -100 -64 0
-251 -101 -65 0
-252 -102 -66 0
-250 -103 -67 0
-251 -104 -68 0
-252 -105 -69 0
-250 -106 -70 0
-251 -107 -71 0
-252 -108 -72 0
-250 -109 -73 0
-251 -110 -74 0
-252 -111 -75 0
-250 -112 -76 0
-251 -113 -77 0
-252 -114 -78 0
-250 -115 -79 0
-251 -116 -80 0
-252 -117 -81 0
-250 -118 -82 0
-251 -119 -83 0
-252 -120 -84 0
-250 -121 -85 0
-251 -122 -86 0
-252 -123 -87 0
-250 -124 -88 0
-251 -125 -89 0
-252 -126 -90 0
-250 -127 -91 0
-251 -128 -92 0
-252 -129 -93 0
-250 -130 -94 0
-251 -131 -95 0
-252 -132 -96 0
-250 -133 -97 0
-251 -134 -98 0
-252 -135 -99 0
-250 -136 -100 0
-251 -137 -101 0
-252 -138 -102 0
-250 -139 -103 0
-251 -140 -104 0
-252 -141 -105 0
-250 -142 -106 0
-251 -143 -107 0
-252 -144 -108 0
-250 -145 -109 0
-251 -146 -110 0
-252 -147 -111 0
-250 -148 -112 0
-251 -149 -113 0
-252 -150 -114 0
-250 -151 -115 0
-251 -152 -116 0
-252 -153 -117 0
-250 -154 -118 0
-251 -155 -119 0
-252 -156 -120 0
-250 -157 -121 0
-251 -158 -122 0
-252 -159 -123 0
-250 -160 -124 0
-251 -161 -125 0
-252 -162 -126 0
-250 -163 -127 0
-251 -164 -128 0
-252 -165 -129 0
-250 -166 -130 0
-251 -167 -131 0
-252 -168 -132 0
-250 -169 -133 0
-251 -170 -134 0
-252 -171 -135 0
-250 -172 -136 0
-251 -173 -137 0
-252 -174 -138 0
-250 -175 -139 0
-251 -176 -140 0
-252 -177 -141 0
-250 -178 -142 0
-251 -179 -143 0
-252 -180 -144 0
-250 -181 -145 0
-251 -182 -146 0
-252 -183 -147 0
-250 -184 -148 0
-251 -185 -149 0
-252 -186 -150 0
-250 -187 -151 0
-251 -188 -152 0
-252 -189 -153 0
-250 -190 -154 0
-251 -191 -155 0
-252 -192 -156 0
-250 -193 -157 0
-251 -194 -158 0
-252 -195 -159 0
-250 -196 -160 0
-251 -197 -161 0
-252 -198 -162 0
-250 -199 -163 0
-251 -200 -164 0
-252 -201 -165 0
-250 -202 -166 0
-251 -203 -167 0
-252 -204 -168 0
-250 -205 -169 0
-251 -206 -170 0
-252 -207 -171 0
-250 -208 -172 0
-251 -209 -173 0
-252 -210 -174 0
-250 -211 -175 0
-251 -212 -176 0
-252 -213 -177 0
-250 -214 -178 0
-251 -215 -179 0
-252 -216 -180 0
-250 -217 -181 0
-251 -218 -182 0
-252 -219 -183 0
-250 -220 -184 0
-251 -221 -185 0
-252 -222 -186 0
-250 -223 -187 0
-251 -224 -188 0
-252 -225 -189 0
-250 -226 -190 0
-251 -227 -191 0
-252 -228 -192 0
-250 -229 -193 0
-251 -230 -194 0
-252 -231 -195 0
-250 -232 -196 0
-251 -233 -197 0
-252 -234 -198 0
-250 -235 -199 0
-251 -236 -200 0
-252 -237 -201 0
-250 -238 -202 0
-251 -239 -203 0
-252 -240 -204 0
-250 -241 -205 0
-251 -242 -206 0
-252 -243 -207 0
-250 -244 -208 0
-251 -245 -209 0
-252 -246 -210 0
-250 -247 -211 0
-251 -248 -212 0
-252 -249 -213 0
-250 -214 0
-251 -215 0
-252 -216 0
-253 -250 -217 0
-254 -251 -218 0
-255 -252 -219 0
-256 -250 -220 0
-257 -251 -221 0
-258 -252 -222 0
-259 -250 -223 0
-260 -251 -224 0
-261 -252 -225 0
-262 -250 -226 0
-263 -251 -227 0
-264 -252 -228 0
-265 -250 -229 0
-266 -251 -230 0
-267 -252 -231 0
-268 -250 -232 0
-269 -251 -233 0
-270 -252 -234 0
-271 -250 -235 0
-272 -251 -236 0
-273 -252 -237 0
-274 -250 -238 0
-275 -251 -239 0
-276 -252 -240 0
-277 -250 -241 0
-278 -251 -242 0
-279 -252 -243 0
-280 -250 -244 0
-281 -251 -245 0
-282 -252 -246 0
-283 -250 -247 0
-284 -251 -248 0
-285 -252 -249 0
-286 -250 0
-287 -251 0
-288 -252 0
-289 -253 -250 0
-290 -254 -251 0
-291 -255 -252 0
-292 -256 -250 0
-293 -257 -251 0
-294 -258 -252 0
-295 -259 -250 0
-296 -260 -251 0
-297 -261 -252 0
-298 -262 -250 0
-299 -263 -251 0
-300 -264 -252 0
-301 -265 -250 0
-302 -266 -251 0
-303 -267 -252 0
-304 -268 -250 0
-305 -269 -251 0
-306 -270 -252 0
-307 -271 -250 0
-308 -272 -251 0
-309 -273 -252 0
-310 -274 -250 0
-311 -275 -251 0
-312 -276 -252 0
-313 -277 -250 0
-314 -278 -251 0
-315 -279 -252 0
-316 -280 -250 0
-317 -281 -251 0
-318 -282 -252 0
-319 -283 -250 0
-320 -284 -251 0
-321 -285 -252 0
-322 -286 -250 0
-323 -287 -251 0
-324 -288 -252 0
-325 -289 -250 0
-326 -290 -251 0
-327 -291 -252 0
-328 -292 -250 0
-329 -293 -251 0
-330 -294 -252 0
-331 -295 -250 0
-332 -296 -251 0
-333 -297 -252 0
-334 -298 -250 0
-335 -299 -251 0
-336 -300 -252 0
-337 -301 -250 0
-338 -302 -251 0
-339 -303 -252 0
-340 -304 -250 0
-341 -305 -251 0
-342 -306 -252 0
-343 -307 -250 0
-344 -308 -251 0
-345 -309 -252 0
-346 -310 -250 0
-347 -311 -251 0
-348 -312 -252 0
-349 -313 -250 0
-350 -314 -251 0
-351 -315 -252 0
-352 -316 -250 0
-353 -317 -251 0
-354 -318 -252 0
-355 -319 -250 0
-356 -320 -251 0
-357 -321 -252 0
-358 -322 -250 0
-359 -323 -251 0
-360 -324 -252 0
-361 -325 -250 0
-362 -326 -251 0
-363 -327 -252 0
-364 -328 -250 0
-365 -329 -251 0
-366 -330 -252 0
-367 -331 -250 0
-368 -332 -251 0
-369 -333 -252 0
-370 -334 -250 0
-371 -335 -251 0
-372 -336 -252 0
-373 -337 -250 0
-374 -338 -251 0
-375 -339 -252 0
-376 -340 -250 0
-377 -341 -251 0
-378 -342 -252 0
-379 -343 -250 0
-380 -344 -251 0
-381 -345 -252 0
-382 -346 -250 0
-383 -347 -251 0
-384 -348 -252 0
-385 -349 -250 0
-386 -350 -251 0
-387 -351 -252 0
-388 -352 -250 0
-389 -353 -251 0
-390 -354 -252 0
-391 -355 -250 0
-392 -356 -251 0
-393 -357 -252 0
-394 -358 -250 0
-395 -359 -251 0
-396 -360 -252 0
-397 -361 -250 0
-398 -362 -251 0
-399 -363 -252 0
-400 -364 -250 0
-401 -365 -251 0
-402 -366 -252 0
-403 -367 -250 0
-404 -368 -251 0
-405 -369 -252 0
-406 -370 -250 0
-407 -371 -251 0
-408 -372 -252 0
-409 -373 -250 0
-410 -374 -251 0
-411 -375 -252 0
-412 -376 -250 0
-413 -377 -251 0
-414 -378 -252 0
-415 -379 -250 0
-416 -380 -251 0
-417 -381 -252 0
-418 -382 -250 0
-419 -383 -251 0
-420 -384 -252 0
-421 -385 -250 0
-422 -386 -251 0
-423 -387 -252 0
-424 -388 -250 0
-425 -389 -251 0
-426 -390 -252 0
-427 -391 -250 0
-428 -392 -251 0
-429 -393 -252 0
-430 -394 -250 0
-431 -395 -251 0
-432 -396 -252 0
-433 -397 -250 0
-434 -398 -251 0
-435 -399 -252 0
-436 -400 -250 0
-437 -401 -251 0
-438 -402 -252 0
-439 -403 -250 0
-440 -404 -251 0
-441 -405 -252 0
-442 -406 -250 0
-443 -407 -251 0
-444 -408 -252 0
-445 -409 -250 0
-446 -410 -251 0
-447 -411 -252 0
-448 -412 -250 0
-449 -413 -251 0
-450 -414 -252 0
-451 -415 -250 0
-452 -416 -251 0
-453 -417 -252 0
-454 -418 -250 0
-455 -419 -251 0
-456 -420 -252 0
-457 -421 -250 0
-458 -422 -251 0
-459 -423 -252 0
-460 -424 -250 0
-461 -425 -251 0
-462 -426 -252 0
-463 -427 -250 0
-464 -428 -251 0
-465 -429 -252 0
-466 -430 -250 0
-467 -431 -251 0
-468 -432 -252 0
-469 -433 -250 0
-470 -434 -251 0
-471 -435 -252 0
-472 -436 -250 0
-473 -437 -251 0
-474 -438 -252 0
-475 -439 -250 0
-476 -440 -251 0
-477 -441 -252 0
-478 -442 -250 0
-479 -443 -251 0
-480 -444 -252 0
-481 -445 -250 0
-482 -446 -251 0
-483 -447 -252 0
-484 -448 -250 0
-485 -449 -251 0
-486 -450 -252 0
-487 -451 -250 0
-488 -452 -251 0
-489 -453 -252 0
-490 -454 -250 0
-491 -455 -251 0
-492 -456 -252 0
-493 -457 -250 0
-494 -458 -251 0
-495 -459 -252 0
-496 -460 -250 0
-497 -461 -251 0
-498 -462 -252 0
-499 -463 -250 0
-500 -464 -251 0
-501 -465 -252 0
-502 -466 -250 0
-503 -467 -251 0
-504 -468 -252 0
-505 -469 -250 0
-506 -470 -251 0
-507 -471 -252 0
-508 -472 -250 0
-509 -473 -251 0
-510 -474 -252 0
-511 -475 -250 0
-512 -476 -251 0
-513 -477 -252 0
-514 -478 -250 0
-515 -479 -251 0
-516 -480 -252 0
-517 -481 -250 0
-518 -482 -251 0
-519 -483 -252 0
-520 -484 -250 0
-521 -485 -251 0
-522 -486 -252 0
-523 -487 -250 0
-524 -488 -251 0
-525 -489 -252 0
-526 -490 -250 0
-527 -491 -251 0
-528 -492 -252 0
-529 -493 -250 0
-530 -494 -251 0
-531 -495 -252 0
-532 -496 -250 0
-533 -497 -251 0
-534 -498 -252 0
-535 -499 -250 0
-536 -500 -251 0
-537 -501 -252 0
-538 -502 -250 0
-539 -503 -251 0
-540 -504 -252 0
-541 -505 -250 0
-542 -506 -251 0
-543 -507 -252 0
-544 -508 -250 0
-545 -509 -251 0
-546 -510 -252 0
-547 -511 -250 0
-548 -512 -251 0
-549 -513 -252 0
-550 -514 -250 0
-551 -515 -251 0
-552 -516 -252 0
-553 -517 -250 0
-554 -518 -251 0
-555 -519 -252 0
-556 -520 -250 0
-557 -521 -251 0
-558 -522 -252 0
-559 -523 -250 0
-560 -524 -251 0
-561 -525 -252 0
-562 -526 -250 0
-563 -527 -251 0
-564 -528 -252 0
-565 -529 -250 0
-566 -530 -251 0
-567 -531 -252 0
-568 -532 -250 0
-569 -533 -251 0
-570 -534 -252 0
-571 -535 -250 0
-572 -536 -251 0
-573 -537 -252 0
-574 -538 -250 0
-575 -539 -251 0
-576 -540 -252 0
-577 -541 -250 0
-578 -542 -251 0
-579 -543 -252 0
-580 -544 -250 0
-581 -545 -251 0
-582 -546 -252 0
-583 -547 -250 0
-584 -548 -251 0
-585 -549 -252 0
-586 -550 -250 0
-587 -551 -251 0
-588 -552 -252 0
-589 -553 -250 0
-590 -554 -251 0
-591 -555 -252 0
-592 -556 -250 0
-593 -557 -251 0
-594 -558 -252 0
-595 -559 -250 0
-596 -560 -251 0
-597 -561 -252 0
-598 -562 -250 0
-599 -563 -251 0
-600 -564 -252 0
-601 -565 -250 0
-602 -566 -251 0
-603 -567 -252 0
-604 -568 -250 0
-605 -569 -251 0
-606 -570 -252 0
-607 -571 -250 0
-608 -572 -251 0
-609 -573 -252 0
-610 -574 -250 0
-611 -575 -251 0
-612 -576 -252 0
-613 -577 -250 0
-614 -578 -251 0
-615 -579 -252 0
-616 -580 -250 0
-617 -581 -251 0
-618 -582 -252 0
-619 -583 -250 0
-620 -584 -251 0
-621 -585 -252 0
-622 -586 -250 0
-623 -587 -251 0
-624 -588 -252 0
-625 -589 -250 0
-626 -590 -251 0
-627 -591 -252 0
-628 -592 -250 0
-629 -593 -251 0
-630 -594 -252 0
-631 -595 -250 0
-632 -596 -251 0
-633 -597 -252 0
-634 -598 -250 0
-635 -599 -251 0
-636 -600 -252 0
-637 -601 -250 0
-638 -602 -251 0
-639 -603 -252 0
-640 -604 -250 0
-641 -605 -251 0
-642 -606 -252 0
-643 -607 -250 0
-644 -608 -251 0
-645 -609 -252 0
-646 -610 -250 0
-647 -611 -251 0
-648 -612 -252 0
-649 -613 -250 0
-650 -614 -251 0
-651 -615 -252 0
-652 -616 -250 0
-653 -617 -251 0
-654 -618 -252 0
-655 -619 -250 0
-656 -620 -251 0
-657 -621 -252 0
-658 -622 -250 0
-659 -623 -251 0
-660 -624 -252 0
-661 -625 -250 0
-662 -626 -251 0
-663 -627 -252 0
-664 -628 -250 0
-665 -629 -251 0
-666 -630 -252 0
-667 -631 -250 0
-668 -632 -251 0
-669 -633 -252 0
-670 -634 -250 0
-671 -635 -251 0
-672 -636 -252 0
-673 -637 -250 0
-674 -638 -251 0
-675 -639 -252 0
-676 -640 -250 0
-677 -641 -251 0
-678 -642 -252 0
-679 -643 -250 0
-680 -644 -251 0
-681 -645 -252 0
-682 -646 -250 0
-683 -647 -251 0
-684 -648 -252 0
-685 -649 -250 0
-686 -650 -251 0
-687 -651 -252 0
-688 -652 -250 0
-689 -653 -251 0
-690 -654 -252 0
-691 -655 -250 0
-692 -656 -251 0
-693 -657 -252 0
-694 -658 -250 0
-695 -659 -251 0
-696 -660 -252 0
-697 -661 -250 0
-698 -662 -251 0
-699 -663 -252 0
-700 -664 -250 0
-701 -665 -251 0
-702 -666 -252 0
-703 -667 -250 0
-704 -668 -251 0
-705 -669 -252 0
-706 -670 -250 0
-707 -671 -251 0
-708 -672 -252 0
-709 -673 -250 0
-710 -674 -251 0
-711 -675 -252 0
-712 -676 -250 0
-713 -677 -251 0
-714 -678 -252 0
-715 -679 -250 0
-716 -680 -251 0
-717 -681 -252 0
-718 -682 -250 0
-719 -683 -251 0
-720 -684 -252 0
-721 -685 -250 0
-722 -686 -251 0
-723 -687 -252 0
-724 -688 -250 0
-725 -689 -251 0
-726 -690 -252 0
-727 -691 -250 0
-728 -692 -251 0
-729 -693 -252 0
-730 -694 -250 0
-731 -695 -251 0
-732 -696 -252 0
-733 -697 -250 0
-734 -698 -251 0
-735 -699 -252 0
-736 -700 -250 0
-737 -701 -251 0
-738 -702 -252 0
-739 -703 -250 0
-740 -704 -251 0
-741 -705 -252 0
-742 -706 -250 0
-743 -707 -251 0
-744 -708 -252 0
-745 -709 -250 0
-746 -710 -251 0
-747 -711 -252 0
-748 -712 -250 0
-749 -713 -251 0
-750 -714 -252 0
-751 -715 -250 0
-752 -716 -251 0
-753 -717 -252 0
-754 -718 -250 0
-755 -719 -251 0
-756 -720 -252 0
-757 -721 -250 0
-758 -722 -251 0
-759 -723 -252 0
-760 -724 -250 0
-761 -725 -251 0
-762 -726 -252 0
-763 -727 -250 0
-764 -728 -251 0
-765 -729 -252 0
-766 -730 -250 0
-767 -731 -251 0
-768 -732 -252 0
-769 -733 -250 0
-770 -734 -251 0
-771 -735 -252 0
-772 -736 -250 0
-773 -737 -251 0
-774 -738 -252 0
-775 -739 -250 0
-776 -740 -251 0
-777 -741 -252 0
-778 -742 -250 0
-779 -743 -251 0
-780 -744 -252 0
-781 -745 -250 0
-782 -746 -251 0
-783 -747 -252 0
-784 -748 -250 0
-785 -749 -251 0
-786 -750 -252 0
-787 -751 -250 0
-788 -752 -251 0
-789 -753 -252 0
-790 -754 -250 0
-791 -755 -251 0
-792 -756 -252 0
-793 -757 -250 0
-794 -758 -251 0
-795 -759 -252 0
-796 -760 -250 0
-797 -761 -251 0
-798 -762 -252 0
-799 -763 -250 0
-800 -764 -251 0
-801 -765 -252 0
-802 -766 -250 0
-803 -767 -251 0
-804 -768 -252 0
-805 -769 -250 0
-806 -770 -251 0
-807 -771 -252 0
-808 -772 -250 0
-809 -773 -251 0
-810 -774 -252 0
-811 -775 -250 0
-812 -776 -251 0
-813 -777 -252 0
-814 -778 -250 0
-815 -779 -251 0
-816 -780 -252 0
-817 -781 -250 0
-818 -782 -251 0
-819 -783 -252 0
-820 -784 -250 0
-821 -785 -251 0
-822 -786 -252 0
-823 -787 -250 0
-824 -788 -251 0
-825 -789 -252 0
-826 -790 -250 0
-827 -791 -251 0
-828 -792 -252 0
-829 -793 -250 0
-830 -794 -251 0
-831 -795 -252 0
-832 -796 -250 0
-833 -797 -251 0
-834 -798 -252 0
-835 -799 -250 0
-836 -800 -251 0
-837 -801 -252 0
-838 -802 -250 0
-839 -803 -251 0
-840 -804 -252 0
-841 -805 -250 0
-842 -806 -251 0
-843 -807 -252 0
-844 -808 -250 0
-845 -809 -251 0
-846 -810 -252 0
-847 -811 -250 0
-848 -812 -251 0
-849 -813 -252 0
-850 -814 -250 0
-851 -815 -251 0
-852 -816 -252 0
-853 -817 -250 0
-854 -818 -251 0
-855 -819 -252 0
-856 -820 -250 0
-857 -821 -251 0
-858 -822 -252 0
-859 -823 -250 0
-860 -824 -251 0
-861 -825 -252 0
-862 -826 -250 0
-863 -827 -251 0
-864 -828 -252 0
-865 -829 -250 0
-866 -830 -251 0
-867 -831 -252 0
-868 -832 -250 0
-869 -833 -251 0
-870 -834 -252 0
-871 -835 -250 0
-872 -836 -251 0
-873 -837 -252 0
-874 -838 -250 0
-875 -839 -251 0
-876 -840 -252 0
-877 -841 -250 0
-878 -842 -251 0
-879 -843 -252 0
-880 -844 -250 0
-881 -845 -251 0
-882 -846 -252 0
-883 -847 -250 0
-884 -848 -251 0
-885 -849 -252 0
-886 -850 -250 0
-887 -851 -251 0
-888 -852 -252 0
-889 -853 -250 0
-890 -854 -251 0
-891 -855 -252 0
-892 -856 -250 0
-893 -857 -251 0
-894 -858 -252 0
-895 -859 -250 0
-896 -860 -251 0
-897 -861 -252 0
-898 -862 -250 0
-899 -863 -251 0
-900 -864 -252 0
-901 -865 -250 0
-902 -866 -251 0
-903 -867 -252 0
-904 -868 -250 0
-905 -869 -251 0
-906 -870 -252 0
-907 -871 -250 0
-908 -872 -251 0
-909 -873 -252 0
-910 -874 -250 0
-911 -875 -251 0
-912 -876 -252 0
-913 -877 -250 0
-914 -878 -251 0
-915 -879 -252 0
-916 -880 -250 0
-917 -881 -251 0
-918 -882 -252 0
-919 -883 -250 0
-920 -884 -251 0
-921 -885 -252 0
-922 -886 -250 0
-923 -887 -251 0
-924 -888 -252 0
-925 -889 -250 0
-926 -890 -251 0
-927 -891 -252 0
-928 -892 -250 0
-929 -893 -251 0
-930 -894 -252 0
-931 -895 -250 0
-932 -896 -251 0
-933 -897 -252 0
-934 -898 -250 0
-935 -899 -251 0
-936 -900 -252 0
-937 -901 -250 0
-938 -902 -251 0
-939 -903 -252 0
-940 -904 -250 0
-941 -905 -251 0
-942 -906 -252 0
-943 -907 -250 0
-944 -908 -251 0
-945 -909 -252 0
-946 -910 -250 0
-947 -911 -251 0
-948 -912 -252 0
-949 -913 -250 0
-950 -914 -251 0
-951 -915 -252 0
-952 -916 -250 0
-953 -917 -251 0
-954 -918 -252 0
-955 -919 -250 0
-956 -920 -251 0
-957 -921 -252 0
-958 -922 -250 0
-959 -923 -251 0
-960 -924 -252 0
-961 -925 -250 0
-962 -926 -251 0
-963 -927 -252 0
-964 -928 -250 0
-965 -929 -251 0
-966 -930 -252 0
-967 -931 -250 0
-968 -932 -251 0
-969 -933 -252 0
-970 -934 -250 0
-971 -935 -251 0
-972 -936 -252 0
-973 -937 -250 0
-974 -938 -251 0
-975 -939 -252 0
-976 -940 -250 0
-977 -941 -251 0
-978 -942 -252 0
-979 -943 -250 0
-980 -944 -251 0
-981 -945 -252 0
-982 -946 -250 0
-983 -947 -251 0
-984 -948 -252 0
-985 -949 -250 0
-986 -950 -251 0
-987 -951 -252 0
-988 -952 -250 0
-989 -953 -251 0
-990 -954 -252 0
-991 -955 -250 0
-992 -956 -251 0
-993 -957 -252 0
-994 -958 -250 0
-995 -959 -251 0
-996 -960 -252 0
-997 -961 -250 0
-998 -962 -251 0
-999 -963 -252 0
-1000 -964 -250 0
-1001 -965 -251 0
-1002 -966 -252 0
-1003 -967 -250 0
-1004 -968 -251 0
-1005 -969 -252 0
-1006 -970 -250 0
-1007 -971 -251 0
-1008 -972 -252 0
-1009 -973 -250 0
-1010 -974 -251 0
-1011 -975 -252 0
-1012 -976 -250 0
-1013 -977 -251 0
-1014 -978 -252 0
-1015 -979 -250 0
-1016 -980 -251 0
-1017 -981 -252 0
-1018 -982 -250 0
-1019 -983 -251 0
-1020 -984 -252 0
-1021 -985 -250 0
-1022 -986 -251 0
-1023 -987 -252 0
-1024 -988 -250 0
-1025 -989 -251 0
-1026 -990 -252 0
-1027 -991 -250 0
-1028 -992 -251 0
-1029 -993 -252 0
-271 -40 -1 0
-272 -41 -2 0
-273 -42 -3 0
-271 -43 -4 0
-272 -44 -5 0
-273 -45 -6 0
-271 -46 -7 0
-272 -47 -8 0
-273 -48 -9 0
-271 -49 -10 0
-272 -50 -11 0
-273 -51 -12 0
-271 -52 -13 0
-272 -53 -14 0
-273 -54 -15 0
-271 -55 -16 0
-272 -56 -17 0
-273 -57 -18 0
-271 -58 -19 0
-272 -59 -20 0
-273 -60 -21 0
-271 -61 -22 0
-272 -62 -23 0
-273 -63 -24 0
-271 -64 -25 0
-272 -65 -26 0
-273 -66 -27 0
-271 -67 -28 0
-272 -68 -29 0
-273 -69 -30 0
-271 -70 -31 0
-272 -71 -32 0
-273 -72 -33 0
-271 -73 -34 0
-272 -74 -35 0
-273 -75 -36 0
-271 -76 -37 0
-272 -77 -38 0
-273 -78 -39 0
-271 -79 -40 0
-272 -80 -41 0
-273 -81 -42 0
-271 -82 -43 0
-272 -83 -44 0
-273 -84 -45 0
-271 -85 -46 0
-272 -86 -47 0
-273 -87 -48 0
-271 -88 -49 0
-272 -89 -50 0
-273 -90 -51 0
-271 -91 -52 0
-272 -92 -53 0
-273 -93 -54 0
-271 -94 -55 0
-272 -95 -56 0
-273 -96 -57 0
-271 -97 -58 0
-272 -98 -59 0
-273 -99 -60 0
-271 -100 -61 0
-272 -101 -62 0
-273 -102 -63 0
-271 -103 -64 0
-272 -104 -65 0
-273 -105 -66 0
-271 -106 -67 0
-272 -107 -68 0
-273 -108 -69 0
-271 -109 -70 0
-272 -110 -71 0
-273 -111 -72 0
-271 -112 -73 0
-272 -113 -74 0
-273 -114 -75 0
-271 -115 -76 0
-272 -116 -77 0
-273 -117 -78 0
-271 -118 -79 0
-272 -119 -80 0
-273 -120 -81 0
-271 -121 -82 0
-272 -122 -83 0
-273 -123 -84 0
-271 -124 -85 0
-272 -125 -86 0
-273 -126 -87 0
-271 -127 -88 0
-272 -128 -89 0
-273 -129 -90 0
-271 -130 -91 0
-272 -131 -92 0
-273 -132 -93 0
-271 -133 -94 0
-272 -134 -95 0
-273 -135 -96 0
-271 -136 -97 0
-272 -137 -98 0
-273 -138 -99 0
-271 -139 -100 0
-272 -140 -101 0
-273 -141 -102 0
-271 -142 -103 0
-272 -143 -104 0
-273 -144 -105 0
-271 -145 -106 0
-272 -146 -107 0
-273 -147 -108 0
-271 -148 -109 0
-272 -149 -110 0
-273 -150 -111 0
-271 -151 -112 0
-272 -152 -113 0
-273 -153 -114 0
-271 -154 -115 0
-272 -155 -116 0
-273 -156 -117 0
-271 -157 -118 0
-272 -158 -119 0
-273 -159 -120 0
-271 -160 -121 0
-272 -161 -122 0
-273 -162 -123 0
-271 -163 -124 0
-272 -164 -125 0
-273 -165 -126 0
-271 -166 -127 0
-272 -167 -128 0
-273 -168 -129 0
-271 -169 -130 0
-272 -170 -131 0
-273 -171 -132 0
-271 -172 -133 0
-272 -173 -134 0
-273 -174 -135 0
-271 -175 -136 0
-272 -176 -137 0
-273 -177 -138 0
-271 -178 -139 0
-272 -179 -140 0
-273 -180 -141 0
-271 -181 -142 0
-272 -182 -143 0
-273 -183 -144 0
-271 -184 -145 0
-272 -185 -146 0
-273 -186 -147 0
-271 -187 -148 0
-272 -188 -149 0
-273 -189 -150 0
-271 -190 -151 0
-272 -191 -152 0
-273 -192 -153 0
-271 -193 -154 0
-272 -194 -155 0
-273 -195 -156 0
-271 -196 -157 0
-272 -197 -158 0
-273 -198 -159 0
-271 -199 -160 0
-272 -200 -161 0
-273 -201 -162 0
-271 -202 -163 0
-272 -203 -164 0
-273 -204 -165 0
-271 -205 -166 0
-272 -206 -167 0
-273 -207 -168 0
-271 -208 -169 0
-272 -209 -170 0
-273 -210 -171 0
-271 -211 -172 0
-272 -212 -173 0
-273 -213 -174 0
-271 -214 -175 0
-272 -215 -176 0
-273 -216 -177 0
-271 -217 -178 0
-272 -218 -179 0
-273 -219 -180 0
-271 -220 -181 0
-272 -221 -182 0
-273 -222 -183 0
-271 -223 -184 0
-272 -224 -185 0
-273 -225 -186 0
-271 -226 -187 0
-272 -227 -188 0
-273 -228 -189 0
-271 -229 -190 0
-272 -230 -191 0
-273 -231 -192 0
-271 -232 -193 0
-272 -233 -194 0
-273 -234 -195 0
-271 -235 -196 0
-272 -236 -197 0
-273 -237 -198 0
-271 -238 -199 0
-272 -239 -200 0
-273 -240 -201 0
-271 -241 -202 0
-272 -242 -203 0
-273 -243 -204 0
-271 -244 -205 0
-272 -245 -206 0
-273 -246 -207 0
-271 -247 -208 0
-272 -248 -209 0
-273 -249 -210 0
-271 -250 -211 0
-272 -251 -212 0
-273 -252 -213 0
-271 -253 -214 0
-272 -254 -215 0
-273 -255 -216 0
-271 -256 -217 0
-272 -257 -218 0
-273 -258 -219 0
-271 -259 -220 0
-272 -260 -221 0
-273 -261 -222 0
-271 -262 -223 0
-272 -263 -224 0
-273 -264 -225 0
-271 -265 -226 0
-272 -266 -227 0
-273 -267 -228 0
-271 -268 -229 0
-272 -269 -230 0
-273 -270 -231 0
-271 -232 0
-272 -233 0
-273 -234 0
-274 -271 -235 0
-275 -272 -236 0
-276 -273 -237 0
-277 -271 -238 0
-278 -272 -239 0
-279 -273 -240 0
-280 -271 -241 0
-281 -272 -242 0
-282 -273 -243 0
-283 -271 -244 0
-284 -272 -245 0
-285 -273 -246 0
-286 -271 -247 0
-287 -272 -248 0
-288 -273 -249 0
-289 -271 -250 0
-290 -272 -251 0
-291 -273 -252 0
-292 -271 -253 0
-293 -272 -254 0
-294 -273 -255 0
-295 -271 -256 0
-296 -272 -257 0
-297 -273 -258 0
-298 -271 -259 0
-299 -272 -260 0
-300 -273 -261 0
-301 -271 -262 0
-302 -272 -263 0
-303 -273 -264 0
-304 -271 -265 0
-305 -272 -266 0
-306 -273 -267 0
-307 -271 -268 0
-308 -272 -269 0
-309 -273 -270 0
-310 -271 0
-311 -272 0
-312 -273 0
-313 -274 -271 0
-314 -275 -272 0
-315 -276 -273 0
-316 -277 -271 0
-317 -278 -272 0
-318 -279 -273 0
-319 -280 -271 0
-320 -281 -272 0
-321 -282 -273 0
-322 -283 -271 0
-323 -284 -272 0
-324 -285 -273 0
-325 -286 -271 0
-326 -287 -272 0
-327 -288 -273 0
-328 -289 -271 0
-329 -290 -272 0
-330 -291 -273 0
-331 -292 -271 0
-332 -293 -272 0
-333 -294 -273 0
-334 -295 -271 0
-335 -296 -272 0
-336 -297 -273 0
-337 -298 -271 0
-338 -299 -272 0
-339 -300 -273 0
-340 -301 -271 0
-341 -302 -272 0
-342 -303 -273 0
-343 -304 -271 0
-344 -305 -272 0
-345 -306 -273 0
-346 -307 -271 0
-347 -308 -272 0
-348 -309 -273 0
-349 -310 -271 0
-350 -311 -272 0
-351 -312 -273 0
-352 -313 -271 0
-353 -314 -272 0
-354 -315 -273 0
-355 -316 -271 0
-356 -317 -272 0
-357 -318 -273 0
-358 -319 -271 0
-359 -320 -272 0
-360 -321 -273 0
-361 -322 -271 0
-362 -323 -272 0
-363 -324 -273 0
-364 -325 -271 0
-365 -326 -272 0
-366 -327 -273 0
-367 -328 -271 0
-368 -329 -272 0
-369 -330 -273 0
-370 -331 -271 0
-371 -332 -272 0
-372 -333 -273 0
-373 -334 -271 0
-374 -335 -272 0
-375 -336 -273 0
-376 -337 -271 0
-377 -338 -272 0
-378 -339 -273 0
-379 -340 -271 0
-380 -341 -272 0
-381 -342 -273 0
-382 -343 -271 0
-383 -344 -272 0
-384 -345 -273 0
-385 -346 -271 0
-386 -347 -272 0
-387 -348 -273 0
-388 -349 -271 0
-389 -350 -272 0
-390 -351 -273 0
-391 -352 -271 0
-392 -353 -272 0
-393 -354 -273 0
-394 -355 -271 0
-395 -356 -272 0
-396 -357 -273 0
-397 -358 -271 0
-398 -359 -272 0
-399 -360 -273 0
-400 -361 -271 0
-401 -362 -272 0
-402 -363 -273 0
-403 -364 -271 0
-404 -365 -272 0
-405 -366 -273 0
-406 -367 -271 0
-407 -368 -272 0
-408 -369 -273 0
-409 -370 -271 0
-410 -371 -272 0
-411 -372 -273 0
-412 -373 -271 0
-413 -374 -272 0
-414 -375 -273 0
-415 -376 -271 0
-416 -377 -272 0
-417 -378 -273 0
-418 -379 -271 0
-419 -380 -272 0
-420 -381 -273 0
-421 -382 -271 0
-422 -383 -272 0
-423 -384 -273 0
-424 -385 -271 0
-425 -386 -272 0
-426 -387 -273 0
-427 -388 -271 0
-428 -389 -272 0
-429 -390 -273 0
-430 -391 -271 0
-431 -392 -272 0
-432 -393 -273 0
-433 -394 -271 0
-434 -395 -272 0
-435 -396 -273 0
-436 -397 -271 0
-437 -398 -272 0
-438 -399 -273 0
-439 -400 -271 0
-440 -401 -272 0
-441 -402 -273 0
-442 -403 -271 0
-443 -404 -272 0
-444 -405 -273 0
-445 -406 -271 0
-446 -407 -272 0
-447 -408 -273 0
-448 -409 -271 0
-449 -410 -272 0
-450 -411 -273 0
-451 -412 -271 0
-452 -413 -272 0
-453 -414 -273 0
-454 -415 -271 0
-455 -416 -272 0
-456 -417 -273 0
-457 -418 -271 0
-458 -419 -272 0
-459 -420 -273 0
-460 -421 -271 0
-461 -422 -272 0
-462 -423 -273 0
-463 -424 -271 0
-464 -425 -272 0
-465 -426 -273 0
-466 -427 -271 0
-467 -428 -272 0
-468 -429 -273 0
-469 -430 -271 0
-470 -431 -272 0
-471 -432 -273 0
-472 -433 -271 0
-473 -434 -272 0
-474 -435 -273 0
-475 -436 -271 0
-476 -437 -272 0
-477 -438 -273 0
-478 -439 -271 0
-479 -440 -272 0
-480 -441 -273 0
-481 -442 -271 0
-482 -443 -272 0
-483 -444 -273 0
-484 -445 -271 0
-485 -446 -272 0
-486 -447 -273 0
-487 -448 -271 0
-488 -449 -272 0
-489 -450 -273 0
-490 -451 -271 0
-491 -452 -272 0
-492 -453 -273 0
-493 -454 -271 0
-494 -455 -272 0
-495 -456 -273 0
-496 -457 -271 0
-497 -458 -272 0
-498 -459 -273 0
-499 -460 -271 0
-500 -461 -272 0
-501 -462 -273 0
-502 -463 -271 0
-503 -464 -272 0
-504 -465 -273 0
-505 -466 -271 0
-506 -467 -272 0
-507 -468 -273 0
-508 -469 -271 0
-509 -470 -272 0
-510 -471 -273 0
-511 -472 -271 0
-512 -473 -272 0
-513 -474 -273 0
-514 -475 -271 0
-515 -476 -272 0
-516 -477 -273 0
-517 -478 -271 0
-518 -479 -272 0
-519 -480 -273 0
-520 -481 -271 0
-521 -482 -272 0
-522 -483 -273 0
-523 -484 -271 0
-524 -485 -272 0
-525 -486 -273 0
-526 -487 -271 0
-527 -488 -272 0
-528 -489 -273 0
-529 -490 -271 0
-530 -491 -272 0
-531 -492 -273 0
-532 -493 -271 0
-533 -494 -272 0
-534 -495 -273 0
-535 -496 -271 0
-536 -497 -272 0
-537 -498 -273 0
-538 -499 -271 0
-539 -500 -272 0
-540 -501 -273 0
-541 -502 -271 0
-542 -503 -272 0
-543 -504 -273 0
-544 -505 -271 0
-545 -506 -272 0
-546 -507 -273 0
-547 -508 -271 0
-548 -509 -272 0
-549 -510 -273 0
-550 -511 -271 0
-551 -512 -272 0
-552 -513 -273 0
-553 -514 -271 0
-554 -515 -272 0
-555 -516 -273 0
-556 -517 -271 0
-557 -518 -272 0
-558 -519 -273 0
-559 -520 -271 0
-560 -521 -272 0
-561 -522 -273 0
-562 -523 -271 0
-563 -524 -272 0
-564 -525 -273 0
-565 -526 -271 0
-566 -527 -272 0
-567 -528 -273 0
-568 -529 -271 0
-569 -530 -272 0
-570 -531 -273 0
-571 -532 -271 0
-572 -533 -272 0
-573 -534 -273 0
-574 -535 -271 0
-575 -536 -272 0
-576 -537 -273 0
-577 -538 -271 0
-578 -539 -272 0
-579 -540 -273 0
-580 -541 -271 0
-581 -542 -272 0
-582 -543 -273 0
-583 -544 -271 0
-584 -545 -272 0
-585 -546 -273 0
-586 -547 -271 0
-587 -548 -272 0
-588 -549 -273 0
-589 -550 -271 0
-590 -551 -272 0
-591 -552 -273 0
-592 -553 -271 0
-593 -554 -272 0
-594 -555 -273 0
-595 -556 -271 0
-596 -557 -272 0
-597 -558 -273 0
-598 -559 -271 0
-599 -560 -272 0
-600 -561 -273 0
-601 -562 -271 0
-602 -563 -272 0
-603 -564 -273 0
-604 -565 -271 0
-605 -566 -272 0
-606 -567 -273 0
-607 -568 -271 0
-608 -569 -272 0
-609 -570 -273 0
-610 -571 -271 0
-611 -572 -272 0
-612 -573 -273 0
-613 -574 -271 0
-614 -575 -272 0
-615 -576 -273 0
-616 -577 -271 0
-617 -578 -272 0
-618 -579 -273 0
-619 -580 -271 0
-620 -581 -272 0
-621 -582 -273 0
-622 -583 -271 0
-623 -584 -272 0
-624 -585 -273 0
-625 -586 -271 0
-626 -587 -272 0
-627 -588 -273 0
-628 -589 -271 0
-629 -590 -272 0
-630 -591 -273 0
-631 -592 -271 0
-632 -593 -272 0
-633 -594 -273 0
-634 -595 -271 0
-635 -596 -272 0
-636 -597 -273 0
-637 -598 -271 0
-638 -599 -272 0
-639 -600 -273 0
-640 -601 -271 0
-641 -602 -272 0
-642 -603 -273 0
-643 -604 -271 0
-644 -605 -272 0
-645 -606 -273 0
-646 -607 -271 0
-647 -608 -272 0
-648 -609 -273 0
-649 -610 -271 0
-650 -611 -272 0
-651 -612 -273 0
-652 -613 -271 0
-653 -614 -272 0
-654 -615 -273 0
-655 -616 -271 0
-656 -617 -272 0
-657 -618 -273 0
-658 -619 -271 0
-659 -620 -272 0
-660 -621 -273 0
-661 -622 -271 0
-662 -623 -272 0
-663 -624 -273 0
-664 -625 -271 0
-665 -626 -272 0
-666 -627 -273 0
-667 -628 -271 0
-668 -629 -272 0
-669 -630 -273 0
-670 -631 -271 0
-671 -632 -272 0
-672 -633 -273 0
-673 -634 -271 0
-674 -635 -272 0
-675 -636 -273 0
-676 -637 -271 0
-677 -638 -272 0
-678 -639 -273 0
-679 -640 -271 0
-680 -641 -272 0
-681 -642 -273 0
-682 -643 -271 0
-683 -644 -272 0
-684 -645 -273 0
-685 -646 -271 0
-686 -647 -272 0
-687 -648 -273 0
-688 -649 -271 0
-689 -650 -272 0
-690 -651 -273 0
-691 -652 -271 0
-692 -653 -272 0
-693 -654 -273 0
-694 -655 -271 0
-695 -656 -272 0
-696 -657 -273 0
-697 -658 -271 0
-698 -659 -272 0
-699 -660 -273 0
-700 -661 -271 0
-701 -662 -272 0
-702 -663 -273 0
-703 -664 -271 0
-704 -665 -272 0
-705 -666 -273 0
-706 -667 -271 0
-707 -668 -272 0
-708 -669 -273 0
-709 -670 -271 0
-710 -671 -272 0
-711 -672 -273 0
-712 -673 -271 0
-713 -674 -272 0
-714 -675 -273 0
-715 -676 -271 0
-716 -677 -272 0
-717 -678 -273 0
-718 -679 -271 0
-719 -680 -272 0
-720 -681 -273 0
-721 -682 -271 0
-722 -683 -272 0
-723 -684 -273 0
-724 -685 -271 0
-725 -686 -272 0
-726 -687 -273 0
-727 -688 -271 0
-728 -689 -272 0
-729 -690 -273 0
-730 -691 -271 0
-731 -692 -272 0
-732 -693 -273 0
-733 -694 -271 0
-734 -695 -272 0
-735 -696 -273 0
-736 -697 -271 0
-737 -698 -272 0
-738 -699 -273 0
-739 -700 -271 0
-740 -701 -272 0
-741 -702 -273 0
-742 -703 -271 0
-743 -704 -272 0
-744 -705 -273 0
-745 -706 -271 0
-746 -707 -272 0
-747 -708 -273 0
-748 -709 -271 0
-749 -710 -272 0
-750 -711 -273 0
-751 -712 -271 0
-752 -713 -272 0
-753 -714 -273 0
-754 -715 -271 0
-755 -716 -272 0
-756 -717 -273 0
-757 -718 -271 0
-758 -719 -272 0
-759 -720 -273 0
-760 -721 -271 0
-761 -722 -272 0
-762 -723 -273 0
-763 -724 -271 0
-764 -725 -272 0
-765 -726 -273 0
-766 -727 -271 0
-767 -728 -272 0
-768 -729 -273 0
-769 -730 -271 0
-770 -731 -272 0
-771 -732 -273 0
-772 -733 -271 0
-773 -734 -272 0
-774 -735 -273 0
-775 -736 -271 0
-776 -737 -272 0
-777 -738 -273 0
-778 -739 -271 0
-779 -740 -272 0
-780 -741 -273 0
-781 -742 -271 0
-782 -743 -272 0
-783 -744 -273 0
-784 -745 -271 0
-785 -746 -272 0
-786 -747 -273 0
-787 -748 -271 0
-788 -749 -272 0
-789 -750 -273 0
-790 -751 -271 0
-791 -752 -272 0
-792 -753 -273 0
-793 -754 -271 0
-794 -755 -272 0
-795 -756 -273 0
-796 -757 -271 0
-797 -758 -272 0
-798 -759 -273 0
-799 -760 -271 0
-800 -761 -272 0
-801 -762 -273 0
-802 -763 -271 0
-803 -764 -272 0
-804 -765 -273 0
-805 -766 -271 0
-806 -767 -272 0
-807 -768 -273 0
-808 -769 -271 0
-809 -770 -272 0
-810 -771 -273 0
-811 -772 -271 0
-812 -773 -272 0
-813 -774 -273 0
-814 -775 -271 0
-815 -776 -272 0
-816 -777 -273 0
-817 -778 -271 0
-818 -779 -272 0
-819 -780 -273 0
-820 -781 -271 0
-821 -782 -272 0
-822 -783 -273 0
-823 -784 -271 0
-824 -785 -272 0
-825 -786 -273 0
-826 -787 -271 0
-827 -788 -272 0
-828 -789 -273 0
-829 -790 -271 0
-830 -791 -272 0
-831 -792 -273 0
-832 -793 -271 0
-833 -794 -272 0
-834 -795 -273 0
-835 -796 -271 0
-836 -797 -272 0
-837 -798 -273 0
-838 -799 -271 0
-839 -800 -272 0
-840 -801 -273 0
-841 -802 -271 0
-842 -803 -272 0
-843 -804 -273 0
-844 -805 -271 0
-845 -806 -272 0
-846 -807 -273 0
-847 -808 -271 0
-848 -809 -272 0
-849 -810 -273 0
-850 -811 -271 0
-851 -812 -272 0
-852 -813 -273 0
-853 -814 -271 0
-854 -815 -272 0
-855 -816 -273 0
-856 -817 -271 0
-857 -818 -272 0
-858 -819 -273 0
-859 -820 -271 0
-860 -821 -272 0
-861 -822 -273 0
-862 -823 -271 0
-863 -824 -272 0
-864 -825 -273 0
-865 -826 -271 0
-866 -827 -272 0
-867 -828 -273 0
-868 -829 -271 0
-869 -830 -272 0
-870 -831 -273 0
-871 -832 -271 0
-872 -833 -272 0
-873 -834 -273 0
-874 -835 -271 0
-875 -836 -272 0
-876 -837 -273 0
-877 -838 -271 0
-878 -839 -272 0
-879 -840 -273 0
-880 -841 -271 0
-881 -842 -272 0
-882 -843 -273 0
-883 -844 -271 0
-884 -845 -272 0
-885 -846 -273 0
-886 -847 -271 0
-887 -848 -272 0
-888 -849 -273 0
-889 -850 -271 0
-890 -851 -272 0
-891 -852 -273 0
-892 -853 -271 0
-893 -854 -272 0
-894 -855 -273 0
-895 -856 -271 0
-896 -857 -272 0
-897 -858 -273 0
-898 -859 -271 0
-899 -860 -272 0
-900 -861 -273 0
-901 -862 -271 0
-902 -863 -272 0
-903 -864 -273 0
-904 -865 -271 0
-905 -866 -272 0
-906 -867 -273 0
-907 -868 -271 0
-908 -869 -272 0
-909 -870 -273 0
-910 -871 -271 0
-911 -872 -272 0
-912 -873 -273 0
-913 -874 -271 0
-914 -875 -272 0
-915 -876 -273 0
-916 -877 -271 0
-917 -878 -272 0
-918 -879 -273 0
-919 -880 -271 0
-920 -881 -272 0
-921 -882 -273 0
-922 -883 -271 0
-923 -884 -272 0
-924 -885 -273 0
-925 -886 -271 0
-926 -887 -272 0
-927 -888 -273 0
-928 -889 -271 0
-929 -890 -272 0
-930 -891 -273 0
-931 -892 -271 0
-932 -893 -272 0
-933 -894 -273 0
-934 -895 -271 0
-935 -896 -272 0
-936 -897 -273 0
-937 -898 -271 0
-938 -899 -272 0
-939 -900 -273 0
-940 -901 -271 0
-941 -902 -272 0
-942 -903 -273 0
-943 -904 -271 0
-944 -905 -272 0
-945 -906 -273 0
-946 -907 -271 0
-947 -908 -272 0
-948 -909 -273 0
-949 -910 -271 0
-950 -911 -272 0
-951 -912 -273 0
-952 -913 -271 0
-953 -914 -272 0
-954 -915 -273 0
-955 -916 -271 0
-956 -917 -272 0
-957 -918 -273 0
-958 -919 -271 0
-959 -920 -272 0
-960 -921 -273 0
-961 -922 -271 0
-962 -923 -272 0
-963 -924 -273 0
-964 -925 -271 0
-965 -926 -272 0
-966 -927 -273 0
-967 -928 -271 0
-968 -929 -272 0
-969 -930 -273 0
-970 -931 -271 0
-971 -932 -272 0
-972 -933 -273 0
-973 -934 -271 0
-974 -935 -272 0
-975 -936 -273 0
-976 -937 -271 0
-977 -938 -272 0
-978 -939 -273 0
-979 -940 -271 0
-980 -941 -272 0
-981 -942 -273 0
-982 -943 -271 0
-983 -944 -272 0
-984 -945 -273 0
-985 -946 -271 0
-986 -947 -272 0
-987 -948 -273 0
-988 -949 -271 0
-989 -950 -272 0
-990 -951 -273 0
-991 -952 -271 0
-992 -953 -272 0
-993 -954 -273 0
-994 -955 -271 0
-995 -956 -272 0
-996 -957 -273 0
-997 -958 -271 0
-998 -959 -272 0
-999 -960 -273 0
-1000 -961 -271 0
-1001 -962 -272 0
-1002 -963 -273 0
-1003 -964 -271 0
-1004 -965 -272 0
-1005 -966 -273 0
-1006 -967 -271 0
-1007 -968 -272 0
-1008 -969 -273 0
-1009 -970 -271 0
-1010 -971 -272 0
-1011 -972 -273 0
-1012 -973 -271 0
-1013 -974 -272 0
-1014 -975 -273 0
-1015 -976 -271 0
-1016 -977 -272 0
-1017 -978 -273 0
-1018 -979 -271 0
-1019 -980 -272 0
-1020 -981 -273 0
-1021 -982 -271 0
-1022 -983 -272 0
-1023 -984 -273 0
-1024 -985 -271 0
-1025 -986 -272 0
-1026 -987 -273 0
-1027 -988 -271 0
-1028 -989 -272 0
-1029 -990 -273 0
-292 -43 -1 0
-293 -44 -2 0
-294 -45 -3 0
-292 -46 -4 0
-293 -47 -5 0
-294 -48 -6 0
-292 -49 -7 0
-293 -50 -8 0
-294 -51 -9 0
-292 -52 -10 0
-293 -53 -11 0
-294 -54 -12 0
-292 -55 -13 0
-293 -56 -14 0
-294 -57 -15 0
-292 -58 -16 0
-293 -59 -17 0
-294 -60 -18 0
-292 -61 -19 0
-293 -62 -20 0
-294 -63 -21 0
-292 -64 -22 0
-293 -65 -23 0
-294 -66 -24 0
-292 -67 -25 0
-293 -68 -26 0
-294 -69 -27 0
-292 -70 -28 0
-293 -71 -29 0
-294 -72 -30 0
-292 -73 -31 0
-293 -74 -32 0
-294 -75 -33 0
-292 -76 -34 0
-293 -77 -35 0
-294 -78 -36 0
-292 -79 -37 0
-293 -80 -38 0
-294 -81 -39 0
-292 -82 -40 0
-293 -83 -41 0
-294 -84 -42 0
-292 -85 -43 0
-293 -86 -44 0
-294 -87 -45 0
-292 -88 -46 0
-293 -89 -47 0
-294 -90 -48 0
-292 -91 -49 0
-293 -92 -50 0
-294 -93 -51 0
-292 -94 -52 0
-293 -95 -53 0
-294 -96 -54 0
-292 -97 -55 0
-293 -98 -56 0
-294 -99 -57 0
-292 -100 -58 0
-293 -101 -59 0
-294 -102 -60 0
-292 -103 -61 0
-293 -104 -62 0
-294 -105 -63 0
-292 -106 -64 0
-293 -107 -65 0
-294 -108 -66 0
-292 -109 -67 0
-293 -110 -68 0
-294 -111 -69 0
-292 -112 -70 0
-293 -113 -71 0
-294 -114 -72 0
-292 -115 -73 0
-293 -116 -74 0
-294 -117 -75 0
-292 -118 -76 0
-293 -119 -77 0
-294 -120 -78 0
-292 -121 -79 0
-293 -122 -80 0
-294 -123 -81 0
-292 -124 -82 0
-293 -125 -83 0
-294 -126 -84 0
-292 -127 -85 0
-293 -128 -86 0
-294 -129 -87 0
-292 -130 -88 0
-293 -131 -89 0
-294 -132 -90 0
-292 -133 -91 0
-293 -134 -92 0
-294 -135 -93 0
-292 -136 -94 0
-293 -137 -95 0
-294 -138 -96 0
-292 -139 -97 0
-293 -140 -98 0
-294 -141 -99 0
-292 -142 -100 0
-293 -143 -101 0
-294 -144 -102 0
-292 -145 -103 0
-293 -146 -104 0
-294 -147 -105 0
-292 -148 -106 0
-293 -149 -107 0
-294 -150 -108 0
-292 -151 -109 0
-293 -152 -110 0
-294 -153 -111 0
-292 -154 -112 0
-293 -155 -113 0
-294 -156 -114 0
-292 -157 -115 0
-293 -158 -116 0
-294 -159 -117 0
-292 -160 -118 0
-293 -161 -119 0
-294 -162 -120 0
-292 -163 -121 0
-293 -164 -122 0
-294 -165 -123 0
-292 -166 -124 0
-293 -167 -125 0
-294 -168 -126 0
-292 -169 -127 0
-293 -170 -128 0
-294 -171 -129 0
-292 -172 -130 0
-293 -173 -131 0
-294 -174 -132 0
-292 -175 -133 0
-293 -176 -134 0
-294 -177 -135 0
-292 -178 -136 0
-293 -179 -137 0
-294 -180 -138 0
-292 -181 -139 0
-293 -182 -140 0
-294 -183 -141 0
-292 -184 -142 0
-293 -185 -143 0
-294 -186 -144 0
-292 -187 -145 0
-293 -188 -146 0
-294 -189 -147 0
-292 -190 -148 0
-293 -191 -149 0
-294 -192 -150 0
-292 -193 -151 0
-293 -194 -152 0
-294 -195 -153 0
-292 -196 -154 0
-293 -197 -155 0
-294 -198 -156 0
-292 -199 -157 0
-293 -200 -158 0
-294 -201 -159 0
-292 -202 -160 0
-293 -203 -161 0
-294 -204 -162 0
-292 -205 -163 0
-293 -206 -164 0
-294 -207 -165 0
-292 -208 -166 0
-293 -209 -167 0
-294 -210 -168 0
-292 -211 -169 0
-293 -212 -170 0
-294 -213 -171 0
-292 -214 -172 0
-293 -215 -173 0
-294 -216 -174 0
-292 -217 -175 0
-293 -218 -176 0
-294 -219 -177 0
-292 -220 -178 0
-293 -221 -179 0
-294 -222 -180 0
-292 -223 -181 0
-293 -224 -182 0
-294 -225 -183 0
-292 -226 -184 0
-293 -227 -185 0
-294 -228 -186 0
-292 -229 -187 0
-293 -230 -188 0
-294 -231 -189 0
-292 -232 -190 0
-293 -233 -191 0
-294 -234 -192 0
-292 -235 -193 0
-293 -236 -194 0
-294 -237 -195 0
-292 -238 -196 0
-293 -239 -197 0
-294 -240 -198 0
-292 -241 -199 0
-293 -242 -200 0
-294 -243 -201 0
-292 -244 -202 0
-293 -245 -203 0
-294 -246 -204 0
-292 -247 -205 0
-293 -248 -206 0
-294 -249 -207 0
-292 -250 -208 0
-293 -251 -209 0
-294 -252 -210 0
-292 -253 -211 0
-293 -254 -212 0
-294 -255 -213 0
-292 -256 -214 0
-293 -257 -215 0
-294 -258 -216 0
-292 -259 -217 0
-293 -260 -218 0
-294 -261 -219 0
-292 -262 -220 0
-293 -263 -221 0
-294 -264 -222 0
-292 -265 -223 0
-293 -266 -224 0
-294 -267 -225 0
-292 -268 -226 0
-293 -269 -227 0
-294 -270 -228 0
-292 -271 -229 0
-293 -272 -230 0
-294 -273 -231 0
-292 -274 -232 0
-293 -275 -233 0
-294 -276 -234 0
-292 -277 -235 0
-293 -278 -236 0
-294 -279 -237 0
-292 -280 -238 0
-293 -281 -239 0
-294 -282 -240 0
-292 -283 -241 0
-293 -284 -242 0
-294 -285 -243 0
-292 -286 -244 0
-293 -287 -245 0
-294 -288 -246 0
-292 -289 -247 0
-293 -290 -248 0
-294 -291 -249 0
-292 -250 0
-293 -251 0
-294 -252 0
-295 -292 -253 0
-296 -293 -254 0
-297 -294 -255 0
-298 -292 -256 0
-299 -293 -257 0
-300 -294 -258 0
-301 -292 -259 0
-302 -293 -260 0
-303 -294 -261 0
-304 -292 -262 0
-305 -293 -263 0
-306 -294 -264 0
-307 -292 -265 0
-308 -293 -266 0
-309 -294 -267 0
-310 -292 -268 0
-311 -293 -269 0
-312 -294 -270 0
-313 -292 -271 0
-314 -293 -272 0
-315 -294 -273 0
-316 -292 -274 0
-317 -293 -275 0
-318 -294 -276 0
-319 -292 -277 0
-320 -293 -278 0
-321 -294 -279 0
-322 -292 -280 0
-323 -293 -281 0
-324 -294 -282 0
-325 -292 -283 0
-326 -293 -284 0
-327 -294 -285 0
-328 -292 -286 0
-329 -293 -287 0
-330 -294 -288 0
-331 -292 -289 0
-332 -293 -290 0
-333 -294 -291 0
-334 -292 0
-335 -293 0
-336 -294 0
-337 -295 -292 0
-338 -296 -293 0
-339 -297 -294 0
-340 -298 -292 0
-341 -299 -293 0
-342 -300 -294 0
-343 -301 -292 0
-344 -302 -293 0
-345 -303 -294 0
-346 -304 -292 0
-347 -305 -293 0
-348 -306 -294 0
-349 -307 -292 0
-350 -308 -293 0
-351 -309 -294 0
-352 -310 -292 0
-353 -311 -293 0
-354 -312 -294 0
-355 -313 -292 0
-356 -314 -293 0
-357 -315 -294 0
-358 -316 -292 0
-359 -317 -293 0
-360 -318 -294 0
-361 -319 -292 0
-362 -320 -293 0
-363 -321 -294 0
-364 -322 -292 0
-365 -323 -293 0
-366 -324 -294 0
-367 -325 -292 0
-368 -326 -293 0
-369 -327 -294 0
-370 -328 -292 0
-371 -329 -293 0
-372 -330 -294 0
-373 -331 -292 0
-374 -332 -293 0
-375 -333 -294 0
-376 -334 -292 0
-377 -335 -293 0
-378 -336 -294 0
-379 -337 -292 0
-380 -338 -293 0
-381 -339 -294 0
-382 -340 -292 0
-383 -341 -293 0
-384 -342 -294 0
-385 -343 -292 0
-386 -344 -293 0
-387 -345 -294 0
-388 -346 -292 0
-389 -347 -293 0
-390 -348 -294 0
-391 -349 -292 0
-392 -350 -293 0
-393 -351 -294 0
-394 -352 -292 0
-395 -353 -293 0
-396 -354 -294 0
-397 -355 -292 0
-398 -356 -293 0
-399 -357 -294 0
-400 -358 -292 0
-401 -359 -293 0
-402 -360 -294 0
-403 -361 -292 0
-404 -362 -293 0
-405 -363 -294 0
-406 -364 -292 0
-407 -365 -293 0
-408 -366 -294 0
-409 -367 -292 0
-410 -368 -293 0
-411 -369 -294 0
-412 -370 -292 0
-413 -371 -293 0
-414 -372 -294 0
-415 -373 -292 0
-416 -374 -293 0
-417 -375 -294 0
-418 -376 -292 0
-419 -377 -293 0
-420 -378 -294 0
-421 -379 -292 0
-422 -380 -293 0
-423 -381 -294 0
-424 -382 -292 0
-425 -383 -293 0
-426 -384 -294 0
-427 -385 -292 0
-428 -386 -293 0
-429 -387 -294 0
-430 -388 -292 0
-431 -389 -293 0
-432 -390 -294 0
-433 -391 -292 0
-434 -392 -293 0
-435 -393 -294 0
-436 -394 -292 0
-437 -395 -293 0
-438 -396 -294 0
-439 -397 -292 0
-440 -398 -293 0
-441 -399 -294 0
-442 -400 -292 0
-443 -401 -293 0
-444 -402 -294 0
-445 -403 -292 0
-446 -404 -293 0
-447 -405 -294 0
-448 -406 -292 0
-449 -407 -293 0
-450 -408 -294 0
-451 -409 -292 0
-452 -410 -293 0
-453 -411 -294 0
-454 -412 -292 0
-455 -413 -293 0
-456 -414 -294 0
-457 -415 -292 0
-458 -416 -293 0
-459 -417 -294 0
-460 -418 -292 0
-461 -419 -293 0
-462 -420 -294 0
-463 -421 -292 0
-464 -422 -293 0
-465 -423 -294 0
-466 -424 -292 0
-467 -425 -293 0
-468 -426 -294 0
-469 -427 -292 0
-470 -428 -293 0
-471 -429 -294 0
-472 -430 -292 0
-473 -431 -293 0
-474 -432 -294 0
-475 -433 -292 0
-476 -434 -293 0
-477 -435 -294 0
-478 -436 -292 0
-479 -437 -293 0
-480 -438 -294 0
-481 -439 -292 0
-482 -440 -293 0
-483 -441 -294 0
-484 -442 -292 0
-485 -443 -293 0
-486 -444 -294 0
-487 -445 -292 0
-488 -446 -293 0
-489 -447 -294 0
-490 -448 -292 0
-491 -449 -293 0
-492 -450 -294 0
-493 -451 -292 0
-494 -452 -293 0
-495 -453 -294 0
-496 -454 -292 0
-497 -455 -293 0
-498 -456 -294 0
-499 -457 -292 0
-500 -458 -293 0
-501 -459 -294 0
-502 -460 -292 0
-503 -461 -293 0
-504 -462 -294 0
-505 -463 -292 0
-506 -464 -293 0
-507 -465 -294 0
-508 -466 -292 0
-509 -467 -293 0
-510 -468 -294 0
-511 -469 -292 0
-512 -470 -293 0
-513 -471 -294 0
-514 -472 -292 0
-515 -473 -293 0
-516 -474 -294 0
-517 -475 -292 0
-518 -476 -293 0
-519 -477 -294 0
-520 -478 -292 0
-521 -479 -293 0
-522 -480 -294 0
-523 -481 -292 0
-524 -482 -293 0
-525 -483 -294 0
-526 -484 -292 0
-527 -485 -293 0
-528 -486 -294 0
-529 -487 -292 0
-530 -488 -293 0
-531 -489 -294 0
-532 -490 -292 0
-533 -491 -293 0
-534 -492 -294 0
-535 -493 -292 0
-536 -494 -293 0
-537 -495 -294 0
-538 -496 -292 0
-539 -497 -293 0
-540 -498 -294 0
-541 -499 -292 0
-542 -500 -293 0
-543 -501 -294 0
-544 -502 -292 0
-545 -503 -293 0
-546 -504 -294 0
-547 -505 -292 0
-548 -506 -293 0
-549 -507 -294 0
-550 -508 -292 0
-551 -509 -293 0
-552 -510 -294 0
-553 -511 -292 0
-554 -512 -293 0
-555 -513 -294 0
-556 -514 -292 0
-557 -515 -293 0
-558 -516 -294 0
-559 -517 -292 0
-560 -518 -293 0
-561 -519 -294 0
-562 -520 -292 0
-563 -521 -293 0
-564 -522 -294 0
-565 -523 -292 0
-566 -524 -293 0
-567 -525 -294 0
-568 -526 -292 0
-569 -527 -293 0
-570 -528 -294 0
-571 -529 -292 0
-572 -530 -293 0
-573 -531 -294 0
-574 -532 -292 0
-575 -533 -293 0
-576 -534 -294 0
-577 -535 -292 0
-578 -536 -293 0
-579 -537 -294 0
-580 -538 -292 0
-581 -539 -293 0
-582 -540 -294 0
-583 -541 -292 0
-584 -542 -293 0
-585 -543 -294 0
-586 -544 -292 0
-587 -545 -293 0
-588 -546 -294 0
-589 -547 -292 0
-590 -548 -293 0
-591 -549 -294 0
-592 -550 -292 0
-593 -551 -293 0
-594 -552 -294 0
-595 -553 -292 0
-596 -554 -293 0
-597 -555 -294 0
-598 -556 -292 0
-599 -557 -293 0
-600 -558 -294 0
-601 -559 -292 0
-602 -560 -293 0
-603 -561 -294 0
-604 -562 -292 0
-605 -563 -293 0
-606 -564 -294 0
-607 -565 -292 0
-608 -566 -293 0
-609 -567 -294 0
-610 -568 -292 0
-611 -569 -293 0
-612 -570 -294 0
-613 -571 -292 0
-614 -572 -293 0
-615 -573 -294 0
-616 -574 -292 0
-617 -575 -293 0
-618 -576 -294 0
-619 -577 -292 0
-620 -578 -293 0
-621 -579 -294 0
-622 -580 -292 0
-623 -581 -293 0
-624 -582 -294 0
-625 -583 -292 0
-626 -584 -293 0
-627 -585 -294 0
-628 -586 -292 0
-629 -587 -293 0
-630 -588 -294 0
-631 -589 -292 0
-632 -590 -293 0
-633 -591 -294 0
-634 -592 -292 0
-635 -593 -293 0
-636 -594 -294 0
-637 -595 -292 0
-638 -596 -293 0
-639 -597 -294 0
-640 -598 -292 0
-641 -599 -293 0
-642 -600 -294 0
-643 -601 -292 0
-644 -602 -293 0
-645 -603 -294 0
-646 -604 -292 0
-647 -605 -293 0
-648 -606 -294 0
-649 -607 -292 0
-650 -608 -293 0
-651 -609 -294 0
-652 -610 -292 0
-653 -611 -293 0
-654 -612 -294 0
-655 -613 -292 0
-656 -614 -293 0
-657 -615 -294 0
-658 -616 -292 0
-659 -617 -293 0
-660 -618 -294 0
-661 -619 -292 0
-662 -620 -293 0
-663 -621 -294 0
-664 -622 -292 0
-665 -623 -293 0
-666 -624 -294 0
-667 -625 -292 0
-668 -626 -293 0
-669 -627 -294 0
-670 -628 -292 0
-671 -629 -293 0
-672 -630 -294 0
-673 -631 -292 0
-674 -632 -293 0
-675 -633 -294 0
-676 -634 -292 0
-677 -635 -293 0
-678 -636 -294 0
-679 -637 -292 0
-680 -638 -293 0
-681 -639 -294 0
-682 -640 -292 0
-683 -641 -293 0
-684 -642 -294 0
-685 -643 -292 0
-686 -644 -293 0
-687 -645 -294 0
-688 -646 -292 0
-689 -647 -293 0
-690 -648 -294 0
-691 -649 -292 0
-692 -650 -293 0
-693 -651 -294 0
-694 -652 -292 0
-695 -653 -293 0
-696 -654 -294 0
-697 -655 -292 0
-698 -656 -293 0
-699 -657 -294 0
-700 -658 -292 0
-701 -659 -293 0
-702 -660 -294 0
-703 -661 -292 0
-704 -662 -293 0
-705 -663 -294 0
-706 -664 -292 0
-707 -665 -293 0
-708 -666 -294 0
-709 -667 -292 0
-710 -668 -293 0
-711 -669 -294 0
-712 -670 -292 0
-713 -671 -293 0
-714 -672 -294 0
-715 -673 -292 0
-716 -674 -293 0
-717 -675 -294 0
-718 -676 -292 0
-719 -677 -293 0
-720 -678 -294 0
-721 -679 -292 0
-722 -680 -293 0
-723 -681 -294 0
-724 -682 -292 0
-725 -683 -293 0
-726 -684 -294 0
-727 -685 -292 0
-728 -686 -293 0
-729 -687 -294 0
-730 -688 -292 0
-731 -689 -293 0
-732 -690 -294 0
-733 -691 -292 0
-734 -692 -293 0
-735 -693 -294 0
-736 -694 -292 0
-737 -695 -293 0
-738 -696 -294 0
-739 -697 -292 0
-740 -698 -293 0
-741 -699 -294 0
-742 -700 -292 0
-743 -701 -293 0
-744 -702 -294 0
-745 -703 -292 0
-746 -704 -293 0
-747 -705 -294 0
-748 -706 -292 0
-749 -707 -293 0
-750 -708 -294 0
-751 -709 -292 0
-752 -710 -293 0
-753 -711 -294 0
-754 -712 -292 0
-755 -713 -293 0
-756 -714 -294 0
-757 -715 -292 0
-758 -716 -293 0
-759 -717 -294 0
-760 -718 -292 0
-761 -719 -293 0
-762 -720 -294 0
-763 -721 -292 0
-764 -722 -293 0
-765 -723 -294 0
-766 -724 -292 0
-767 -725 -293 0
-768 -726 -294 0
-769 -727 -292 0
-770 -728 -293 0
-771 -729 -294 0
-772 -730 -292 0
-773 -731 -293 0
-774 -732 -294 0
-775 -733 -292 0
-776 -734 -293 0
-777 -735 -294 0
-778 -736 -292 0
-779 -737 -293 0
-780 -738 -294 0
-781 -739 -292 0
-782 -740 -293 0
-783 -741 -294 0
-784 -742 -292 0
-785 -743 -293 0
-786 -744 -294 0
-787 -745 -292 0
-788 -746 -293 0
-789 -747 -294 0
-790 -748 -292 0
-791 -749 -293 0
-792 -750 -294 0
-793 -751 -292 0
-794 -752 -293 0
-795 -753 -294 0
-796 -754 -292 0
-797 -755 -293 0
-798 -756 -294 0
-799 -757 -292 0
-800 -758 -293 0
-801 -759 -294 0
-802 -760 -292 0
-803 -761 -293 0
-804 -762 -294 0
-805 -763 -292 0
-806 -764 -293 0
-807 -765 -294 0
-808 -766 -292 0
-809 -767 -293 0
-810 -768 -294 0
-811 -769 -292 0
-812 -770 -293 0
-813 -771 -294 0
-814 -772 -292 0
-815 -773 -293 0
-816 -774 -294 0
-817 -775 -292 0
-818 -776 -293 0
-819 -777 -294 0
-820 -778 -292 0
-821 -779 -293 0
-822 -780 -294 0
-823 -781 -292 0
-824 -782 -293 0
-825 -783 -294 0
-826 -784 -292 0
-827 -785 -293 0
-828 -786 -294 0
-829 -787 -292 0
-830 -788 -293 0
-831 -789 -294 0
-832 -790 -292 0
-833 -791 -293 0
-834 -792 -294 0
-835 -793 -292 0
-836 -794 -293 0
-837 -795 -294 0
-838 -796 -292 0
-839 -797 -293 0
-840 -798 -294 0
-841 -799 -292 0
-842 -800 -293 0
-843 -801 -294 0
-844 -802 -292 0
-845 -803 -293 0
-846 -804 -294 0
-847 -805 -292 0
-848 -806 -293 0
-849 -807 -294 0
-850 -808 -292 0
-851 -809 -293 0
-852 -810 -294 0
-853 -811 -292 0
-854 -812 -293 0
-855 -813 -294 0
-856 -814 -292 0
-857 -815 -293 0
-858 -816 -294 0
-859 -817 -292 0
-860 -818 -293 0
-861 -819 -294 0
-862 -820 -292 0
-863 -821 -293 0
-864 -822 -294 0
-865 -823 -292 0
-866 -824 -293 0
-867 -825 -294 0
-868 -826 -292 0
-869 -827 -293 0
-870 -828 -294 0
-871 -829 -292 0
-872 -830 -293 0
-873 -831 -294 0
-874 -832 -292 0
-875 -833 -293 0
-876 -834 -294 0
-877 -835 -292 0
-878 -836 -293 0
-879 -837 -294 0
-880 -838 -292 0
-881 -839 -293 0
-882 -840 -294 0
-883 -841 -292 0
-884 -842 -293 0
-885 -843 -294 0
-886 -844 -292 0
-887 -845 -293 0
-888 -846 -294 0
-889 -847 -292 0
-890 -848 -293 0
-891 -849 -294 0
-892 -850 -292 0
-893 -851 -293 0
-894 -852 -294 0
-895 -853 -292 0
-896 -854 -293 0
-897 -855 -294 0
-898 -856 -292 0
-899 -857 -293 0
-900 -858 -294 0
-901 -859 -292 0
-902 -860 -293 0
-903 -861 -294 0
-904 -862 -292 0
-905 -863 -293 0
-906 -864 -294 0
-907 -865 -292 0
-908 -866 -293 0
-909 -867 -294 0
-910 -868 -292 0
-911 -869 -293 0
-912 -870 -294 0
-913 -871 -292 0
-914 -872 -293 0
-915 -873 -294 0
-916 -874 -292 0
-917 -875 -293 0
-918 -876 -294 0
-919 -877 -292 0
-920 -878 -293 0
-921 -879 -294 0
-922 -880 -292 0
-923 -881 -293 0
-924 -882 -294 0
-925 -883 -292 0
-926 -884 -293 0
-927 -885 -294 0
-928 -886 -292 0
-929 -887 -293 0
-930 -888 -294 0
-931 -889 -292 0
-932 -890 -293 0
-933 -891 -294 0
-934 -892 -292 0
-935 -893 -293 0
-936 -894 -294 0
-937 -895 -292 0
-938 -896 -293 0
-939 -897 -294 0
-940 -898 -292 0
-941 -899 -293 0
-942 -900 -294 0
-943 -901 -292 0
-944 -902 -293 0
-945 -903 -294 0
-946 -904 -292 0
-947 -905 -293 0
-948 -906 -294 0
-949 -907 -292 0
-950 -908 -293 0
-951 -909 -294 0
-952 -910 -292 0
-953 -911 -293 0
-954 -912 -294 0
-955 -913 -292 0
-956 -914 -293 0
-957 -915 -294 0
-958 -916 -292 0
-959 -917 -293 0
-960 -918 -294 0
-961 -919 -292 0
-962 -920 -293 0
-963 -921 -294 0
-964 -922 -292 0
-965 -923 -293 0
-966 -924 -294 0
-967 -925 -292 0
-968 -926 -293 0
-969 -927 -294 0
-970 -928 -292 0
-971 -929 -293 0
-972 -930 -294 0
-973 -931 -292 0
-974 -932 -293 0
-975 -933 -294 0
-976 -934 -292 0
-977 -935 -293 0
-978 -936 -294 0
-979 -937 -292 0
-980 -938 -293 0
-981 -939 -294 0
-982 -940 -292 0
-983 -941 -293 0
-984 -942 -294 0
-985 -943 -292 0
-986 -944 -293 0
-987 -945 -294 0
-988 -946 -292 0
-989 -947 -293 0
-990 -948 -294 0
-991 -949 -292 0
-992 -950 -293 0
-993 -951 -294 0
-994 -952 -292 0
-995 -953 -293 0
-996 -954 -294 0
-997 -955 -292 0
-998 -956 -293 0
-999 -957 -294 0
-1000 -958 -292 0
-1001 -959 -293 0
-1002 -960 -294 0
-1003 -961 -292 0
-1004 -962 -293 0
-1005 -963 -294 0
-1006 -964 -292 0
-1007 -965 -293 0
-1008 -966 -294 0
-1009 -967 -292 0
-1010 -968 -293 0
-1011 -969 -294 0
-1012 -970 -292 0
-1013 -971 -293 0
-1014 -972 -294 0
-1015 -973 -292 0
-1016 -974 -293 0
-1017 -975 -294 0
-1018 -976 -292 0
-1019 -977 -293 0
-1020 -978 -294 0
-1021 -979 -292 0
-1022 -980 -293 0
-1023 -981 -294 0
-1024 -982 -292 0
-1025 -983 -293 0
-1026 -984 -294 0
-1027 -985 -292 0
-1028 -986 -293 0
-1029 -987 -294 0
-313 -46 -1 0
-314 -47 -2 0
-315 -48 -3 0
-313 -49 -4 0
-314 -50 -5 0
-315 -51 -6 0
-313 -52 -7 0
-314 -53 -8 0
-315 -54 -9 0
-313 -55 -10 0
-314 -56 -11 0
-315 -57 -12 0
-313 -58 -13 0
-314 -59 -14 0
-315 -60 -15 0
-313 -61 -16 0
-314 -62 -17 0
-315 -63 -18 0
-313 -64 -19 0
-314 -65 -20 0
-315 -66 -21 0
-313 -67 -22 0
-314 -68 -23 0
-315 -69 -24 0
-313 -70 -25 0
-314 -71 -26 0
-315 -72 -27 0
-313 -73 -28 0
-314 -74 -29 0
-315 -75 -30 0
-313 -76 -31 0
-314 -77 -32 0
-315 -78 -33 0
-313 -79 -34 0
-314 -80 -35 0
-315 -81 -36 0
-313 -82 -37 0
-314 -83 -38 0
-315 -84 -39 0
-313 -85 -40 0
-314 -86 -41 0
-315 -87 -42 0
-313 -88 -43 0
-314 -89 -44 0
-315 -90 -45 0
-313 -91 -46 0
-314 -92 -47 0
-315 -93 -48 0
-313 -94 -49 0
-314 -95 -50 0
-315 -96 -51 0
-313 -97 -52 0
-314 -98 -53 0
-315 -99 -54 0
-313 -100 -55 0
-314 -101 -56 0
-315 -102 -57 0
-313 -103 -58 0
-314 -104 -59 0
-315 -105 -60 0
-313 -106 -61 0
-314 -107 -62 0
-315 -108 -63 0
-313 -109 -64 0
-314 -110 -65 0
-315 -111 -66 0
-313 -112 -67 0
-314 -113 -68 0
-315 -114 -69 0
-313 -115 -70 0
-314 -116 -71 0
-315 -117 -72 0
-313 -118 -73 0
-314 -119 -74 0
-315 -120 -75 0
-313 -121 -76 0
-314 -122 -77 0
-315 -123 -78 0
-313 -124 -79 0
-314 -125 -80 0
-315 -126 -81 0
-313 -127 -82 0
-314 -128 -83 0
-315 -129 -84 0
-313 -130 -85 0
-314 -131 -86 0
-315 -132 -87 0
-313 -133 -88 0
-314 -134 -89 0
-315 -135 -90 0
-313 -136 -91 0
-314 -137 -92 0
-315 -138 -93 0
-313 -139 -94 0
-314 -140 -95 0
-315 -141 -96 0
-313 -142 -97 0
-314 -143 -98 0
-315 -144 -99 0
-313 -145 -100 0
-314 -146 -101 0
-315 -147 -102 0
-313 -148 -103 0
-314 -149 -104 0
-315 -150 -105 0
-313 -151 -106 0
-314 -152 -107 0
-315 -153 -108 0
-313 -154 -109 0
-314 -155 -110 0
-315 -156 -111 0
-313 -157 -112 0
-314 -158 -113 0
-315 -159 -114 0
-313 -160 -115 0
-314 -161 -116 0
-315 -162 -117 0
-313 -163 -118 0
-314 -164 -119 0
-315 -165 -120 0
-313 -166 -121 0
-314 -167 -122 0
-315 -168 -123 0
-313 -169 -124 0
-314 -170 -125 0
-315 -171 -126 0
-313 -172 -127 0
-314 -173 -128 0
-315 -174 -129 0
-313 -175 -130 0
-314 -176 -131 0
-315 -177 -132 0
-313 -178 -133 0
-314 -179 -134 0
-315 -180 -135 0
-313 -181 -136 0
-314 -182 -137 0
-315 -183 -138 0
-313 -184 -139 0
-314 -185 -140 0
-315 -186 -141 0
-313 -187 -142 0
-314 -188 -143 0
-315 -189 -144 0
-313 -190 -145 0
-314 -191 -146 0
-315 -192 -147 0
-313 -193 -148 0
-314 -194 -149 0
-315 -195 -150 0
-313 -196 -151 0
-314 -197 -152 0
-315 -198 -153 0
-313 -199 -154 0
-314 -200 -155 0
-315 -201 -156 0
-313 -202 -157 0
-314 -203 -158 0
-315 -204 -159 0
-313 -205 -160 0
-314 -206 -161 0
-315 -207 -162 0
-313 -208 -163 0
-314 -209 -164 0
-315 -210 -165 0
-313 -211 -166 0
-314 -212 -167 0
-315 -213 -168 0
-313 -214 -169 0
-314 -215 -170 0
-315 -216 -171 0
-313 -217 -172 0
-314 -218 -173 0
-315 -219 -174 0
-313 -220 -175 0
-314 -221 -176 0
-315 -222 -177 0
-313 -223 -178 0
-314 -224 -179 0
-315 -225 -180 0
-313 -226 -181 0
-314 -227 -182 0
-315 -228 -183 0
-313 -229 -184 0
-314 -230 -185 0
-315 -231 -186 0
-313 -232 -187 0
-314 -233 -188 0
-315 -234 -189 0
-313 -235 -190 0
-314 -236 -191 0
-315 -237 -192 0
-313 -238 -193 0
-314 -239 -194 0
-315 -240 -195 0
-313 -241 -196 0
-314 -242 -197 0
-315 -243 -198 0
-313 -244 -199 0
-314 -245 -200 0
-315 -246 -201 0
-313 -247 -202 0
-314 -248 -203 0
-315 -249 -204 0
-313 -250 -205 0
-314 -251 -206 0
-315 -252 -207 0
-313 -253 -208 0
-314 -254 -209 0
-315 -255 -210 0
-313 -256 -211 0
-314 -257 -212 0
-315 -258 -213 0
-313 -259 -214 0
-314 -260 -215 0
-315 -261 -216 0
-313 -262 -217 0
-314 -263 -218 0
-315 -264 -219 0
-313 -265 -220 0
-314 -266 -221 0
-315 -267 -222 0
-313 -268 -223 0
-314 -269 -224 0
-315 -270 -225 0
-313 -271 -226 0
-314 -272 -227 0
-315 -273 -228 0
-313 -274 -229 0
-314 -275 -230 0
-315 -276 -231 0
-313 -277 -232 0
-314 -278 -233 0
-315 -279 -234 0
-313 -280 -235 0
-314 -281 -236 0
-315 -282 -237 0
-313 -283 -238 0
-314 -284 -239 0
-315 -285 -240 0
-313 -286 -241 0
-314 -287 -242 0
-315 -288 -243 0
-313 -289 -244 0
-314 -290 -245 0
-315 -291 -246 0
-313 -292 -247 0
-314 -293 -248 0
-315 -294 -249 0
-313 -295 -250 0
-314 -296 -251 0
-315 -297 -252 0
-313 -298 -253 0
-314 -299 -254 0
-315 -300 -255 0
-313 -301 -256 0
-314 -302 -257 0
-315 -303 -258 0
-313 -304 -259 0
-314 -305 -260 0
-315 -306 -261 0
-313 -307 -262 0
-314 -308 -263 0
-315 -309 -264 0
-313 -310 -265 0
-314 -311 -266 0
-315 -312 -267 0
-313 -268 0
-314 -269 0
-315 -270 0
-316 -313 -271 0
-317 -314 -272 0
-318 -315 -273 0
-319 -313 -274 0
-320 -314 -275 0
-321 -315 -276 0
-322 -313 -277 0
-323 -314 -278 0
-324 -315 -279 0
-325 -313 -280 0
-326 -314 -281 0
-327 -315 -282 0
-328 -313 -283 0
-329 -314 -284 0
-330 -315 -285 0
-331 -313 -286 0
-332 -314 -287 0
-333 -315 -288 0
-334 -313 -289 0
-335 -314 -290 0
-336 -315 -291 0
-337 -313 -292 0
-338 -314 -293 0
-339 -315 -294 0
-340 -313 -295 0
-341 -314 -296 0
-342 -315 -297 0
-343 -313 -298 0
-344 -314 -299 0
-345 -315 -300 0
-346 -313 -301 0
-347 -314 -302 0
-348 -315 -303 0
-349 -313 -304 0
-350 -314 -305 0
-351 -315 -306 0
-352 -313 -307 0
-353 -314 -308 0
-354 -315 -309 0
-355 -313 -310 0
-356 -314 -311 0
-357 -315 -312 0
-358 -313 0
-359 -314 0
-360 -315 0
-361 -316 -313 0
-362 -317 -314 0
-363 -318 -315 0
-364 -319 -313 0
-365 -320 -314 0
-366 -321 -315 0
-367 -322 -313 0
-368 -323 -314 0
-369 -324 -315 0
-370 -325 -313 0
-371 -326 -314 0
-372 -327 -315 0
-373 -328 -313 0
-374 -329 -314 0
-375 -330 -315 0
-376 -331 -313 0
-377 -332 -314 0
-378 -333 -315 0
-379 -334 -313 0
-380 -335 -314 0
-381 -336 -315 0
-382 -337 -313 0
-383 -338 -314 0
-384 -339 -315 0
-385 -340 -313 0
-386 -341 -314 0
-387 -342 -315 0
-388 -343 -313 0
-389 -344 -314 0
-390 -345 -315 0
-391 -346 -313 0
-392 -347 -314 0
-393 -348 -315 0
-394 -349 -313 0
-395 -350 -314 0
-396 -351 -315 0
-397 -352 -313 0
-398 -353 -314 0
-399 -354 -315 0
-400 -355 -313 0
-401 -356 -314 0
-402 -357 -315 0
-403 -358 -313 0
-404 -359 -314 0
-405 -360 -315 0
-406 -361 -313 0
-407 -362 -314 0
-408 -363 -315 0
-409 -364 -313 0
-410 -365 -314 0
-411 -366 -315 0
-412 -367 -313 0
-413 -368 -314 0
-414 -369 -315 0
-415 -370 -313 0
-416 -371 -314 0
-417 -372 -315 0
-418 -373 -313 0
-419 -374 -314 0
-420 -375 -315 0
-421 -376 -313 0
-422 -377 -314 0
-423 -378 -315 0
-424 -379 -313 0
-425 -380 -314 0
-426 -381 -315 0
-427 -382 -313 0
-428 -383 -314 0
-429 -384 -315 0
-430 -385 -313 0
-431 -386 -314 0
-432 -387 -315 0
-433 -388 -313 0
-434 -389 -314 0
-435 -390 -315 0
-436 -391 -313 0
-437 -392 -314 0
-438 -393 -315 0
-439 -394 -313 0
-440 -395 -314 0
-441 -396 -315 0
-442 -397 -313 0
-443 -398 -314 0
-444 -399 -315 0
-445 -400 -313 0
-446 -401 -314 0
-447 -402 -315 0
-448 -403 -313 0
-449 -404 -314 0
-450 -405 -315 0
-451 -406 -313 0
-452 -407 -314 0
-453 -408 -315 0
-454 -409 -313 0
-455 -410 -314 0
-456 -411 -315 0
-457 -412 -313 0
-458 -413 -314 0
-459 -414 -315 0
-460 -415 -313 0
-461 -416 -314 0
-462 -417 -315 0
-463 -418 -313 0
-464 -419 -314 0
-465 -420 -315 0
-466 -421 -313 0
-467 -422 -314 0
-468 -423 -315 0
-469 -424 -313 0
-470 -425 -314 0
-471 -426 -315 0
-472 -427 -313 0
-473 -428 -314 0
-474 -429 -315 0
-475 -430 -313 0
-476 -431 -314 0
-477 -432 -315 0
-478 -433 -313 0
-479 -434 -314 0
-480 -435 -315 0
-481 -436 -313 0
-482 -437 -314 0
-483 -438 -315 0
-484 -439 -313 0
-485 -440 -314 0
-486 -441 -315 0
-487 -442 -313 0
-488 -443 -314 0
-489 -444 -315 0
-490 -445 -313 0
-491 -446 -314 0
-492 -447 -315 0
-493 -448 -313 0
-494 -449 -314 0
-495 -450 -315 0
-496 -451 -313 0
-497 -452 -314 0
-498 -453 -315 0
-499 -454 -313 0
-500 -455 -314 0
-501 -456 -315 0
-502 -457 -313 0
-503 -458 -314 0
-504 -459 -315 0
-505 -460 -313 0
-506 -461 -314 0
-507 -462 -315 0
-508 -463 -313 0
-509 -464 -314 0
-510 -465 -315 0
-511 -466 -313 0
-512 -467 -314 0
-513 -468 -315 0
-514 -469 -313 0
-515 -470 -314 0
-516 -471 -315 0
-517 -472 -313 0
-518 -473 -314 0
-519 -474 -315 0
-520 -475 -313 0
-521 -476 -314 0
-522 -477 -315 0
-523 -478 -313 0
-524 -479 -314 0
-525 -480 -315 0
-526 -481 -313 0
-527 -482 -314 0
-528 -483 -315 0
-529 -484 -313 0
-530 -485 -314 0
-531 -486 -315 0
-532 -487 -313 0
-533 -488 -314 0
-534 -489 -315 0
-535 -490 -313 0
-536 -491 -314 0
-537 -492 -315 0
-538 -493 -313 0
-539 -494 -314 0
-540 -495 -315 0
-541 -496 -313 0
-542 -497 -314 0
-543 -498 -315 0
-544 -499 -313 0
-545 -500 -314 0
-546 -501 -315 0
-547 -502 -313 0
-548 -503 -314 0
-549 -504 -315 0
-550 -505 -313 0
-551 -506 -314 0
-552 -507 -315 0
-553 -508 -313 0
-554 -509 -314 0
-555 -510 -315 0
-556 -511 -313 0
-557 -512 -314 0
-558 -513 -315 0
-559 -514 -313 0
-560 -515 -314 0
-561 -516 -315 0
-562 -517 -313 0
-563 -518 -314 0
-564 -519 -315 0
-565 -520 -313 0
-566 -521 -314 0
-567 -522 -315 0
-568 -523 -313 0
-569 -524 -314 0
-570 -525 -315 0
-571 -526 -313 0
-572 -527 -314 0
-573 -528 -315 0
-574 -529 -313 0
-575 -530 -314 0
-576 -531 -315 0
-577 -532 -313 0
-578 -533 -314 0
-579 -534 -315 0
-580 -535 -313 0
-581 -536 -314 0
-582 -537 -315 0
-583 -538 -313 0
-584 -539 -314 0
-585 -540 -315 0
-586 -541 -313 0
-587 -542 -314 0
-588 -543 -315 0
-589 -544 -313 0
-590 -545 -314 0
-591 -546 -315 0
-592 -547 -313 0
-593 -548 -314 0
-594 -549 -315 0
-595 -550 -313 0
-596 -551 -314 0
-597 -552 -315 0
-598 -553 -313 0
-599 -554 -314 0
-600 -555 -315 0
-601 -556 -313 0
-602 -557 -314 0
-603 -558 -315 0
-604 -559 -313 0
-605 -560 -314 0
-606 -561 -315 0
-607 -562 -313 0
-608 -563 -314 0
-609 -564 -315 0
-610 -565 -313 0
-611 -566 -314 0
-612 -567 -315 0
-613 -568 -313 0
-614 -569 -314 0
-615 -570 -315 0
-616 -571 -313 0
-617 -572 -314 0
-618 -573 -315 0
-619 -574 -313 0
-620 -575 -314 0
-621 -576 -315 0
-622 -577 -313 0
-623 -578 -314 0
-624 -579 -315 0
-625 -580 -313 0
-626 -581 -314 0
-627 -582 -315 0
-628 -583 -313 0
-629 -584 -314 0
-630 -585 -315 0
-631 -586 -313 0
-632 -587 -314 0
-633 -588 -315 0
-634 -589 -313 0
-635 -590 -314 0
-636 -591 -315 0
-637 -592 -313 0
-638 -593 -314 0
-639 -594 -315 0
-640 -595 -313 0
-641 -596 -314 0
-642 -597 -315 0
-643 -598 -313 0
-644 -599 -314 0
-645 -600 -315 0
-646 -601 -313 0
-647 -602 -314 0
-648 -603 -315 0
-649 -604 -313 0
-650 -605 -314 0
-651 -606 -315 0
-652 -607 -313 0
-653 -608 -314 0
-654 -609 -315 0
-655 -610 -313 0
-656 -611 -314 0
-657 -612 -315 0
-658 -613 -313 0
-659 -614 -314 0
-660 -615 -315 0
-661 -616 -313 0
-662 -617 -314 0
-663 -618 -315 0
-664 -619 -313 0
-665 -620 -314 0
-666 -621 -315 0
-667 -622 -313 0
-668 -623 -314 0
-669 -624 -315 0
-670 -625 -313 0
-671 -626 -314 0
-672 -627 -315 0
-673 -628 -313 0
-674 -629 -314 0
-675 -630 -315 0
-676 -631 -313 0
-677 -632 -314 0
-678 -633 -315 0
-679 -634 -313 0
-680 -635 -314 0
-681 -636 -315 0
-682 -637 -313 0
-683 -638 -314 0
-684 -639 -315 0
-685 -640 -313 0
-686 -641 -314 0
-687 -642 -315 0
-688 -643 -313 0
-689 -644 -314 0
-690 -645 -315 0
-691 -646 -313 0
-692 -647 -314 0
-693 -648 -315 0
-694 -649 -313 0
-695 -650 -314 0
-696 -651 -315 0
-697 -652 -313 0
-698 -653 -314 0
-699 -654 -315 0
-700 -655 -313 0
-701 -656 -314 0
-702 -657 -315 0
-703 -658 -313 0
-704 -659 -314 0
-705 -660 -315 0
-706 -661 -313 0
-707 -662 -314 0
-708 -663 -315 0
-709 -664 -313 0
-710 -665 -314 0
-711 -666 -315 0
-712 -667 -313 0
-713 -668 -314 0
-714 -669 -315 0
-715 -670 -313 0
-716 -671 -314 0
-717 -672 -315 0
-718 -673 -313 0
-719 -674 -314 0
-720 -675 -315 0
-721 -676 -313 0
-722 -677 -314 0
-723 -678 -315 0
-724 -679 -313 0
-725 -680 -314 0
-726 -681 -315 0
-727 -682 -313 0
-728 -683 -314 0
-729 -684 -315 0
-730 -685 -313 0
-731 -686 -314 0
-732 -687 -315 0
-733 -688 -313 0
-734 -689 -314 0
-735 -690 -315 0
-736 -691 -313 0
-737 -692 -314 0
-738 -693 -315 0
-739 -694 -313 0
-740 -695 -314 0
-741 -696 -315 0
-742 -697 -313 0
-743 -698 -314 0
-744 -699 -315 0
-745 -700 -313 0
-746 -701 -314 0
-747 -702 -315 0
-748 -703 -313 0
-749 -704 -314 0
-750 -705 -315 0
-751 -706 -313 0
-752 -707 -314 0
-753 -708 -315 0
-754 -709 -313 0
-755 -710 -314 0
-756 -711 -315 0
-757 -712 -313 0
-758 -713 -314 0
-759 -714 -315 0
-760 -715 -313 0
-761 -716 -314 0
-762 -717 -315 0
-763 -718 -313 0
-764 -719 -314 0
-765 -720 -315 0
-766 -721 -313 0
-767 -722 -314 0
-768 -723 -315 0
-769 -724 -313 0
-770 -725 -314 0
-771 -726 -315 0
-772 -727 -313 0
-773 -728 -314 0
-774 -729 -315 0
-775 -730 -313 0
-776 -731 -314 0
-777 -732 -315 0
-778 -733 -313 0
-779 -734 -314 0
-780 -735 -315 0
-781 -736 -313 0
-782 -737 -314 0
-783 -738 -315 0
-784 -739 -313 0
-785 -740 -314 0
-786 -741 -315 0
-787 -742 -313 0
-788 -743 -314 0
-789 -744 -315 0
-790 -745 -313 0
-791 -746 -314 0
-792 -747 -315 0
-793 -748 -313 0
-794 -749 -314 0
-795 -750 -315 0
-796 -751 -313 0
-797 -752 -314 0
-798 -753 -315 0
-799 -754 -313 0
-800 -755 -314 0
-801 -756 -315 0
-802 -757 -313 0
-803 -758 -314 0
-804 -759 -315 0
-805 -760 -313 0
-806 -761 -314 0
-807 -762 -315 0
-808 -763 -313 0
-809 -764 -314 0
-810 -765 -315 0
-811 -766 -313 0
-812 -767 -314 0
-813 -768 -315 0
-814 -769 -313 0
-815 -770 -314 0
-816 -771 -315 0
-817 -772 -313 0
-818 -773 -314 0
-819 -774 -315 0
-820 -775 -313 0
-821 -776 -314 0
-822 -777 -315 0
-823 -778 -313 0
-824 -779 -314 0
-825 -780 -315 0
-826 -781 -313 0
-827 -782 -314 0
-828 -783 -315 0
-829 -784 -313 0
-830 -785 -314 0
-831 -786 -315 0
-832 -787 -313 0
-833 -788 -314 0
-834 -789 -315 0
-835 -790 -313 0
-836 -791 -314 0
-837 -792 -315 0
-838 -793 -313 0
-839 -794 -314 0
-840 -795 -315 0
-841 -796 -313 0
-842 -797 -314 0
-843 -798 -315 0
-844 -799 -313 0
-845 -800 -314 0
-846 -801 -315 0
-847 -802 -313 0
-848 -803 -314 0
-849 -804 -315 0
-850 -805 -313 0
-851 -806 -314 0
-852 -807 -315 0
-853 -808 -313 0
-854 -809 -314 0
-855 -810 -315 0
-856 -811 -313 0
-857 -812 -314 0
-858 -813 -315 0
-859 -814 -313 0
-860 -815 -314 0
-861 -816 -315 0
-862 -817 -313 0
-863 -818 -314 0
-864 -819 -315 0
-865 -820 -313 0
-866 -821 -314 0
-867 -822 -315 0
-868 -823 -313 0
-869 -824 -314 0
-870 -825 -315 0
-871 -826 -313 0
-872 -827 -314 0
-873 -828 -315 0
-874 -829 -313 0
-875 -830 -314 0
-876 -831 -315 0
-877 -832 -313 0
-878 -833 -314 0
-879 -834 -315 0
-880 -835 -313 0
-881 -836 -314 0
-882 -837 -315 0
-883 -838 -313 0
-884 -839 -314 0
-885 -840 -315 0
-886 -841 -313 0
-887 -842 -314 0
-888 -843 -315 0
-889 -844 -313 0
-890 -845 -314 0
-891 -846 -315 0
-892 -847 -313 0
-893 -848 -314 0
-894 -849 -315 0
-895 -850 -313 0
-896 -851 -314 0
-897 -852 -315 0
-898 -853 -313 0
-899 -854 -314 0
-900 -855 -315 0
-901 -856 -313 0
-902 -857 -314 0
-903 -858 -315 0
-904 -859 -313 0
-905 -860 -314 0
-906 -861 -315 0
-907 -862 -313 0
-908 -863 -314 0
-909 -864 -315 0
-910 -865 -313 0
-911 -866 -314 0
-912 -867 -315 0
-913 -868 -313 0
-914 -869 -314 0
-915 -870 -315 0
-916 -871 -313 0
-917 -872 -314 0
-918 -873 -315 0
-919 -874 -313 0
-920 -875 -314 0
-921 -876 -315 0
-922 -877 -313 0
-923 -878 -314 0
-924 -879 -315 0
-925 -880 -313 0
-926 -881 -314 0
-927 -882 -315 0
-928 -883 -313 0
-929 -884 -314 0
-930 -885 -315 0
-931 -886 -313 0
-932 -887 -314 0
-933 -888 -315 0
-934 -889 -313 0
-935 -890 -314 0
-936 -891 -315 0
-937 -892 -313 0
-938 -893 -314 0
-939 -894 -315 0
-940 -895 -313 0
-941 -896 -314 0
-942 -897 -315 0
-943 -898 -313 0
-944 -899 -314 0
-945 -900 -315 0
-946 -901 -313 0
-947 -902 -314 0
-948 -903 -315 0
-949 -904 -313 0
-950 -905 -314 0
-951 -906 -315 0
-952 -907 -313 0
-953 -908 -314 0
-954 -909 -315 0
-955 -910 -313 0
-956 -911 -314 0
-957 -912 -315 0
-958 -913 -313 0
-959 -914 -314 0
-960 -915 -315 0
-961 -916 -313 0
-962 -917 -314 0
-963 -918 -315 0
-964 -919 -313 0
-965 -920 -314 0
-966 -921 -315 0
-967 -922 -313 0
-968 -923 -314 0
-969 -924 -315 0
-970 -925 -313 0
-971 -926 -314 0
-972 -927 -315 0
-973 -928 -313 0
-974 -929 -314 0
-975 -930 -315 0
-976 -931 -313 0
-977 -932 -314 0
-978 -933 -315 0
-979 -934 -313 0
-980 -935 -314 0
-981 -936 -315 0
-982 -937 -313 0
-983 -938 -314 0
-984 -939 -315 0
-985 -940 -313 0
-986 -941 -314 0
-987 -942 -315 0
-988 -943 -313 0
-989 -944 -314 0
-990 -945 -315 0
-991 -946 -313 0
-992 -947 -314 0
-993 -948 -315 0
-994 -949 -313 0
-995 -950 -314 0
-996 -951 -315 0
-997 -952 -313 0
-998 -953 -314 0
-999 -954 -315 0
-1000 -955 -313 0
-1001 -956 -314 0
-1002 -957 -315 0
-1003 -958 -313 0
-1004 -959 -314 0
-1005 -960 -315 0
-1006 -961 -313 0
-1007 -962 -314 0
-1008 -963 -315 0
-1009 -964 -313 0
-1010 -965 -314 0
-1011 -966 -315 0
-1012 -967 -313 0
-1013 -968 -314 0
-1014 -969 -315 0
-1015 -970 -313 0
-1016 -971 -314 0
-1017 -972 -315 0
-1018 -973 -313 0
-1019 -974 -314 0
-1020 -975 -315 0
-1021 -976 -313 0
-1022 -977 -314 0
-1023 -978 -315 0
-1024 -979 -313 0
-1025 -980 -314 0
-1026 -981 -315 0
-1027 -982 -313 0
-1028 -983 -314 0
-1029 -984 -315 0
-334 -49 -1 0
-335 -50 -2 0
-336 -51 -3 0
-334 -52 -4 0
-335 -53 -5 0
-336 -54 -6 0
-334 -55 -7 0
-335 -56 -8 0
-336 -57 -9 0
-334 -58 -10 0
-335 -59 -11 0
-336 -60 -12 0
-334 -61 -13 0
-335 -62 -14 0
-336 -63 -15 0
-334 -64 -16 0
-335 -65 -17 0
-336 -66 -18 0
-334 -67 -19 0
-335 -68 -20 0
-336 -69 -21 0
-334 -70 -22 0
-335 -71 -23 0
-336 -72 -24 0
-334 -73 -25 0
-335 -74 -26 0
-336 -75 -27 0
-334 -76 -28 0
-335 -77 -29 0
-336 -78 -30 0
-334 -79 -31 0
-335 -80 -32 0
-336 -81 -33 0
-334 -82 -34 0
-335 -83 -35 0
-336 -84 -36 0
-334 -85 -37 0
-335 -86 -38 0
-336 -87 -39 0
-334 -88 -40 0
-335 -89 -41 0
-336 -90 -42 0
-334 -91 -43 0
-335 -92 -44 0
-336 -93 -45 0
-334 -94 -46 0
-335 -95 -47 0
-336 -96 -48 0
-334 -97 -49 0
-335 -98 -50 0
-336 -99 -51 0
-334 -100 -52 0
-335 -101 -53 0
-336 -102 -54 0
-334 -103 -55 0
-335 -104 -56 0
-336 -105 -57 0
-334 -106 -58 0
-335 -107 -59 0
-336 -108 -60 0
-334 -109 -61 0
-335 -110 -62 0
-336 -111 -63 0
-334 -112 -64 0
-335 -113 -65 0
-336 -114 -66 0
-334 -115 -67 0
-335 -116 -68 0
-336 -117 -69 0
-334 -118 -70 0
-335 -119 -71 0
-336 -120 -72 0
-334 -121 -73 0
-335 -122 -74 0
-336 -123 -75 0
-334 -124 -76 0
-335 -125 -77 0
-336 -126 -78 0
-334 -127 -79 0
-335 -128 -80 0
-336 -129 -81 0
-334 -130 -82 0
-335 -131 -83 0
-336 -132 -84 0
-334 -133 -85 0
-335 -134 -86 0
-336 -135 -87 0
-334 -136 -88 0
-335 -137 -89 0
-336 -138 -90 0
-334 -139 -91 0
-335 -140 -92 0
-336 -141 -93 0
-334 -142 -94 0
-335 -143 -95 0
-336 -144 -96 0
-334 -145 -97 0
-335 -146 -98 0
-336 -147 -99 0
-334 -148 -100 0
-335 -149 -101 0
-336 -150 -102 0
-334 -151 -103 0
-335 -152 -104 0
-336 -153 -105 0
-334 -154 -106 0
-335 -155 -107 0
-336 -156 -108 0
-334 -157 -109 0
-335 -158 -110 0
-336 -159 -111 0
-334 -160 -112 0
-335 -161 -113 0
-336 -162 -114 0
-334 -163 -115 0
-335 -164 -116 0
-336 -165 -117 0
-334 -166 -118 0
-335 -167 -119 0
-336 -168 -120 0
-334 -169 -121 0
-335 -170 -122 0
-336 -171 -123 0
-334 -172 -124 0
-335 -173 -125 0
-336 -174 -126 0
-334 -175 -127 0
-335 -176 -128 0
-336 -177 -129 0
-334 -178 -130 0
-335 -179 -131 0
-336 -180 -132 0
-334 -181 -133 0
-335 -182 -134 0
-336 -183 -135 0
-334 -184 -136 0
-335 -185 -137 0
-336 -186 -138 0
-334 -187 -139 0
-335 -188 -140 0
-336 -189 -141 0
-334 -190 -142 0
-335 -191 -143 0
-336 -192 -144 0
-334 -193 -145 0
-335 -194 -146 0
-336 -195 -147 0
-334 -196 -148 0
-335 -197 -149 0
-336 -198 -150 0
-334 -199 -151 0
-335 -200 -152 0
-336 -201 -153 0
-334 -202 -154 0
-335 -203 -155 0
-336 -204 -156 0
-334 -205 -157 0
-335 -206 -158 0
-336 -207 -159 0
-334 -208 -160 0
-335 -209 -161 0
-336 -210 -162 0
-334 -211 -163 0
-335 -212 -164 0
-336 -213 -165 0
-334 -214 -166 0
-335 -215 -167 0
-336 -216 -168 0
-334 -217 -169 0
-335 -218 -170 0
-336 -219 -171 0
-334 -220 -172 0
-335 -221 -173 0
-336 -222 -174 0
-334 -223 -175 0
-335 -224 -176 0
-336 -225 -177 0
-334 -226 -178 0
-335 -227 -179 0
-336 -228 -180 0
-334 -229 -181 0
-335 -230 -182 0
-336 -231 -183 0
-334 -232 -184 0
-335 -233 -185 0
-336 -234 -186 0
-334 -235 -187 0
-335 -236 -188 0
-336 -237 -189 0
-334 -238 -190 0
-335 -239 -191 0
-336 -240 -192 0
-334 -241 -193 0
-335 -242 -194 0
-336 -243 -195 0
-334 -244 -196 0
-335 -245 -197 0
-336 -246 -198 0
-334 -247 -199 0
-335 -248 -200 0
-336 -249 -201 0
-334 -250 -202 0
-335 -251 -203 0
-336 -252 -204 0
-334 -253 -205 0
-335 -254 -206 0
-336 -255 -207 0
-334 -256 -208 0
-335 -257 -209 0
-336 -258 -210 0
-334 -259 -211 0
-335 -260 -212 0
-336 -261 -213 0
-334 -262 -214 0
-335 -263 -215 0
-336 -264 -216 0
-334 -265 -217 0
-335 -266 -218 0
-336 -267 -219 0
-334 -268 -220 0
-335 -269 -221 0
-336 -270 -222 0
-334 -271 -223 0
-335 -272 -224 0
-336 -273 -225 0
-334 -274 -226 0
-335 -275 -227 0
-336 -276 -228 0
-334 -277 -229 0
-335 -278 -230 0
-336 -279 -231 0
-334 -280 -232 0
-335 -281 -233 0
-336 -282 -234 0
-334 -283 -235 0
-335 -284 -236 0
-336 -285 -237 0
-334 -286 -238 0
-335 -287 -239 0
-336 -288 -240 0
-334 -289 -241 0
-335 -290 -242 0
-336 -291 -243 0
-334 -292 -244 0
-335 -293 -245 0
-336 -294 -246 0
-334 -295 -247 0
-335 -296 -248 0
-336 -297 -249 0
-334 -298 -250 0
-335 -299 -251 0
-336 -300 -252 0
-334 -301 -253 0
-335 -302 -254 0
-336 -303 -255 0
-334 -304 -256 0
-335 -305 -257 0
-336 -306 -258 0
-334 -307 -259 0
-335 -308 -260 0
-336 -309 -261 0
-334 -310 -262 0
-335 -311 -263 0
-336 -312 -264 0
-334 -313 -265 0
-335 -314 -266 0
-336 -315 -267 0
-334 -316 -268 0
-335 -317 -269 0
-336 -318 -270 0
-334 -319 -271 0
-335 -320 -272 0
-336 -321 -273 0
-334 -322 -274 0
-335 -323 -275 0
-336 -324 -276 0
-334 -325 -277 0
-335 -326 -278 0
-336 -327 -279 0
-334 -328 -280 0
-335 -329 -281 0
-336 -330 -282 0
-334 -331 -283 0
-335 -332 -284 0
-336 -333 -285 0
-334 -286 0
-335 -287 0
-336 -288 0
-337 -334 -289 0
-338 -335 -290 0
-339 -336 -291 0
-340 -334 -292 0
-341 -335 -293 0
-342 -336 -294 0
-343 -334 -295 0
-344 -335 -296 0
-345 -336 -297 0
-346 -334 -298 0
-347 -335 -299 0
-348 -336 -300 0
-349 -334 -301 0
-350 -335 -302 0
-351 -336 -303 0
-352 -334 -304 0
-353 -335 -305 0
-354 -336 -306 0
-355 -334 -307 0
-356 -335 -308 0
-357 -336 -309 0
-358 -334 -310 0
-359 -335 -311 0
-360 -336 -312 0
-361 -334 -313 0
-362 -335 -314 0
-363 -336 -315 0
-364 -334 -316 0
-365 -335 -317 0
-366 -336 -318 0
-367 -334 -319 0
-368 -335 -320 0
-369 -336 -321 0
-370 -334 -322 0
-371 -335 -323 0
-372 -336 -324 0
-373 -334 -325 0
-374 -335 -326 0
-375 -336 -327 0
-376 -334 -328 0
-377 -335 -329 0
-378 -336 -330 0
-379 -334 -331 0
-380 -335 -332 0
-381 -336 -333 0
-382 -334 0
-383 -335 0
-384 -336 0
-385 -337 -334 0
-386 -338 -335 0
-387 -339 -336 0
-388 -340 -334 0
-389 -341 -335 0
-390 -342 -336 0
-391 -343 -334 0
-392 -344 -335 0
-393 -345 -336 0
-394 -346 -334 0
-395 -347 -335 0
-396 -348 -336 0
-397 -349 -334 0
-398 -350 -335 0
-399 -351 -336 0
-400 -352 -334 0
-401 -353 -335 0
-402 -354 -336 0
-403 -355 -334 0
-404 -356 -335 0
-405 -357 -336 0
-406 -358 -334 0
-407 -359 -335 0
-408 -360 -336 0
-409 -361 -334 0
-410 -362 -335 0
-411 -363 -336 0
-412 -364 -334 0
-413 -365 -335 0
-414 -366 -336 0
-415 -367 -334 0
-416 -368 -335 0
-417 -369 -336 0
-418 -370 -334 0
-419 -371 -335 0
-420 -372 -336 0
-421 -373 -334 0
-422 -374 -335 0
-423 -375 -336 0
-424 -376 -334 0
-425 -377 -335 0
-426 -378 -336 0
-427 -379 -334 0
-428 -380 -335 0
-429 -381 -336 0
-430 -382 -334 0
-431 -383 -335 0
-432 -384 -336 0
-433 -385 -334 0
-434 -386 -335 0
-435 -387 -336 0
-436 -388 -334 0
-437 -389 -335 0
-438 -390 -336 0
-439 -391 -334 0
-440 -392 -335 0
-441 -393 -336 0
-442 -394 -334 0
-443 -395 -335 0
-444 -396 -336 0
-445 -397 -334 0
-446 -398 -335 0
-447 -399 -336 0
-448 -400 -334 0
-449 -401 -335 0
-450 -402 -336 0
-451 -403 -334 0
-452 -404 -335 0
-453 -405 -336 0
-454 -406 -334 0
-455 -407 -335 0
-456 -408 -336 0
-457 -409 -334 0
-458 -410 -335 0
-459 -411 -336 0
-460 -412 -334 0
-461 -413 -335 0
-462 -414 -336 0
-463 -415 -334 0
-464 -416 -335 0
-465 -417 -336 0
-466 -418 -334 0
-467 -419 -335 0
-468 -420 -336 0
-469 -421 -334 0
-470 -422 -335 0
-471 -423 -336 0
-472 -424 -334 0
-473 -425 -335 0
-474 -426 -336 0
-475 -427 -334 0
-476 -428 -335 0
-477 -429 -336 0
-478 -430 -334 0
-479 -431 -335 0
-480 -432 -336 0
-481 -433 -334 0
-482 -434 -335 0
-483 -435 -336 0
-484 -436 -334 0
-485 -437 -335 0
-486 -438 -336 0
-487 -439 -334 0
-488 -440 -335 0
-489 -441 -336 0
-490 -442 -334 0
-491 -443 -335 0
-492 -444 -336 0
-493 -445 -334 0
-494 -446 -335 0
-495 -447 -336 0
-496 -448 -334 0
-497 -449 -335 0
-498 -450 -336 0
-499 -451 -334 0
-500 -452 -335 0
-501 -453 -336 0
-502 -454 -334 0
-503 -455 -335 0
-504 -456 -336 0
-505 -457 -334 0
-506 -458 -335 0
-507 -459 -336 0
-508 -460 -334 0
-509 -461 -335 0
-510 -462 -336 0
-511 -463 -334 0
-512 -464 -335 0
-513 -465 -336 0
-514 -466 -334 0
-515 -467 -335 0
-516 -468 -336 0
-517 -469 -334 0
-518 -470 -335 0
-519 -471 -336 0
-520 -472 -334 0
-521 -473 -335 0
-522 -474 -336 0
-523 -475 -334 0
-524 -476 -335 0
-525 -477 -336 0
-526 -478 -334 0
-527 -479 -335 0
-528 -480 -336 0
-529 -481 -334 0
-530 -482 -335 0
-531 -483 -336 0
-532 -484 -334 0
-533 -485 -335 0
-534 -486 -336 0
-535 -487 -334 0
-536 -488 -335 0
-537 -489 -336 0
-538 -490 -334 0
-539 -491 -335 0
-540 -492 -336 0
-541 -493 -334 0
-542 -494 -335 0
-543 -495 -336 0
-544 -496 -334 0
-545 -497 -335 0
-546 -498 -336 0
-547 -499 -334 0
-548 -500 -335 0
-549 -501 -336 0
-550 -502 -334 0
-551 -503 -335 0
-552 -504 -336 0
-553 -505 -334 0
-554 -506 -335 0
-555 -507 -336 0
-556 -508 -334 0
-557 -509 -335 0
-558 -510 -336 0
-559 -511 -334 0
-560 -512 -335 0
-561 -513 -336 0
-562 -514 -334 0
-563 -515 -335 0
-564 -516 -336 0
-565 -517 -334 0
-566 -518 -335 0
-567 -519 -336 0
-568 -520 -334 0
-569 -521 -335 0
-570 -522 -336 0
-571 -523 -334 0
-572 -524 -335 0
-573 -525 -336 0
-574 -526 -334 0
-575 -527 -335 0
-576 -528 -336 0
-577 -529 -334 0
-578 -530 -335 0
-579 -531 -336 0
-580 -532 -334 0
-581 -533 -335 0
-582 -534 -336 0
-583 -535 -334 0
-584 -536 -335 0
-585 -537 -336 0
-586 -538 -334 0
-587 -539 -335 0
-588 -540 -336 0
-589 -541 -334 0
-590 -542 -335 0
-591 -543 -336 0
-592 -544 -334 0
-593 -545 -335 0
-594 -546 -336 0
-595 -547 -334 0
-596 -548 -335 0
-597 -549 -336 0
-598 -550 -334 0
-599 -551 -335 0
-600 -552 -336 0
-601 -553 -334 0
-602 -554 -335 0
-603 -555 -336 0
-604 -556 -334 0
-605 -557 -335 0
-606 -558 -336 0
-607 -559 -334 0
-608 -560 -335 0
-609 -561 -336 0
-610 -562 -334 0
-611 -563 -335 0
-612 -564 -336 0
-613 -565 -334 0
-614 -566 -335 0
-615 -567 -336 0
-616 -568 -334 0
-617 -569 -335 0
-618 -570 -336 0
-619 -571 -334 0
-620 -572 -335 0
-621 -573 -336 0
-622 -574 -334 0
-623 -575 -335 0
-624 -576 -336 0
-625 -577 -334 0
-626 -578 -335 0
-627 -579 -336 0
-628 -580 -334 0
-629 -581 -335 0
-630 -582 -336 0
-631 -583 -334 0
-632 -584 -335 0
-633 -585 -336 0
-634 -586 -334 0
-635 -587 -335 0
-636 -588 -336 0
-637 -589 -334 0
-638 -590 -335 0
-639 -591 -336 0
-640 -592 -334 0
-641 -593 -335 0
-642 -594 -336 0
-643 -595 -334 0
-644 -596 -335 0
-645 -597 -336 0
-646 -598 -334 0
-647 -599 -335 0
-648 -600 -336 0
-649 -601 -334 0
-650 -602 -335 0
-651 -603 -336 0
-652 -604 -334 0
-653 -605 -335 0
-654 -606 -336 0
-655 -607 -334 0
-656 -608 -335 0
-657 -609 -336 0
-658 -610 -334 0
-659 -611 -335 0
-660 -612 -336 0
-661 -613 -334 0
-662 -614 -335 0
-663 -615 -336 0
-664 -616 -334 0
-665 -617 -335 0
-666 -618 -336 0
-667 -619 -334 0
-668 -620 -335 0
-669 -621 -336 0
-670 -622 -334 0
-671 -623 -335 0
-672 -624 -336 0
-673 -625 -334 0
-674 -626 -335 0
-675 -627 -336 0
-676 -628 -334 0
-677 -629 -335 0
-678 -630 -336 0
-679 -631 -334 0
-680 -632 -335 0
-681 -633 -336 0
-682 -634 -334 0
-683 -635 -335 0
-684 -636 -336 0
-685 -637 -334 0
-686 -638 -335 0
-687 -639 -336 0
-688 -640 -334 0
-689 -641 -335 0
-690 -642 -336 0
-691 -643 -334 0
-692 -644 -335 0
-693 -645 -336 0
-694 -646 -334 0
-695 -647 -335 0
-696 -648 -336 0
-697 -649 -334 0
-698 -650 -335 0
-699 -651 -336 0
-700 -652 -334 0
-701 -653 -335 0
-702 -654 -336 0
-703 -655 -334 0
-704 -656 -335 0
-705 -657 -336 0
-706 -658 -334 0
-707 -659 -335 0
-708 -660 -336 0
-709 -661 -334 0
-710 -662 -335 0
-711 -663 -336 0
-712 -664 -334 0
-713 -665 -335 0
-714 -666 -336 0
-715 -667 -334 0
-716 -668 -335 0
-717 -669 -336 0
-718 -670 -334 0
-719 -671 -335 0
-720 -672 -336 0
-721 -673 -334 0
-722 -674 -335 0
-723 -675 -336 0
-724 -676 -334 0
-725 -677 -335 0
-726 -678 -336 0
-727 -679 -334 0
-728 -680 -335 0
-729 -681 -336 0
-730 -682 -334 0
-731 -683 -335 0
-732 -684 -336 0
-733 -685 -334 0
-734 -686 -335 0
-735 -687 -336 0
-736 -688 -334 0
-737 -689 -335 0
-738 -690 -336 0
-739 -691 -334 0
-740 -692 -335 0
-741 -693 -336 0
-742 -694 -334 0
-743 -695 -335 0
-744 -696 -336 0
-745 -697 -334 0
-746 -698 -335 0
-747 -699 -336 0
-748 -700 -334 0
-749 -701 -335 0
-750 -702 -336 0
-751 -703 -334 0
-752 -704 -335 0
-753 -705 -336 0
-754 -706 -334 0
-755 -707 -335 0
-756 -708 -336 0
-757 -709 -334 0
-758 -710 -335 0
-759 -711 -336 0
-760 -712 -334 0
-761 -713 -335 0
-762 -714 -336 0
-763 -715 -334 0
-764 -716 -335 0
-765 -717 -336 0
-766 -718 -334 0
-767 -719 -335 0
-768 -720 -336 0
-769 -721 -334 0
-770 -722 -335 0
-771 -723 -336 0
-772 -724 -334 0
-773 -725 -335 0
-774 -726 -336 0
-775 -727 -334 0
-776 -728 -335 0
-777 -729 -336 0
-778 -730 -334 0
-779 -731 -335 0
-780 -732 -336 0
-781 -733 -334 0
-782 -734 -335 0
-783 -735 -336 0
-784 -736 -334 0
-785 -737 -335 0
-786 -738 -336 0
-787 -739 -334 0
-788 -740 -335 0
-789 -741 -336 0
-790 -742 -334 0
-791 -743 -335 0
-792 -744 -336 0
-793 -745 -334 0
-794 -746 -335 0
-795 -747 -336 0
-796 -748 -334 0
-797 -749 -335 0
-798 -750 -336 0
-799 -751 -334 0
-800 -752 -335 0
-801 -753 -336 0
-802 -754 -334 0
-803 -755 -335 0
-804 -756 -336 0
-805 -757 -334 0
-806 -758 -335 0
-807 -759 -336 0
-808 -760 -334 0
-809 -761 -335 0
-810 -762 -336 0
-811 -763 -334 0
-812 -764 -335 0
-813 -765 -336 0
-814 -766 -334 0
-815 -767 -335 0
-816 -768 -336 0
-817 -769 -334 0
-818 -770 -335 0
-819 -771 -336 0
-820 -772 -334 0
-821 -773 -335 0
-822 -774 -336 0
-823 -775 -334 0
-824 -776 -335 0
-825 -777 -336 0
-826 -778 -334 0
-827 -779 -335 0
-828 -780 -336 0
-829 -781 -334 0
-830 -782 -335 0
-831 -783 -336 0
-832 -784 -334 0
-833 -785 -335 0
-834 -786 -336 0
-835 -787 -334 0
-836 -788 -335 0
-837 -789 -336 0
-838 -790 -334 0
-839 -791 -335 0
-840 -792 -336 0
-841 -793 -334 0
-842 -794 -335 0
-843 -795 -336 0
-844 -796 -334 0
-845 -797 -335 0
-846 -798 -336 0
-847 -799 -334 0
-848 -800 -335 0
-849 -801 -336 0
-850 -802 -334 0
-851 -803 -335 0
-852 -804 -336 0
-853 -805 -334 0
-854 -806 -335 0
-855 -807 -336 0
-856 -808 -334 0
-857 -809 -335 0
-858 -810 -336 0
-859 -811 -334 0
-860 -812 -335 0
-861 -813 -336 0
-862 -814 -334 0
-863 -815 -335 0
-864 -816 -336 0
-865 -817 -334 0
-866 -818 -335 0
-867 -819 -336 0
-868 -820 -334 0
-869 -821 -335 0
-870 -822 -336 0
-871 -823 -334 0
-872 -824 -335 0
-873 -825 -336 0
-874 -826 -334 0
-875 -827 -335 0
-876 -828 -336 0
-877 -829 -334 0
-878 -830 -335 0
-879 -831 -336 0
-880 -832 -334 0
-881 -833 -335 0
-882 -834 -336 0
-883 -835 -334 0
-884 -836 -335 0
-885 -837 -336 0
-886 -838 -334 0
-887 -839 -335 0
-888 -840 -336 0
-889 -841 -334 0
-890 -842 -335 0
-891 -843 -336 0
-892 -844 -334 0
-893 -845 -335 0
-894 -846 -336 0
-895 -847 -334 0
-896 -848 -335 0
-897 -849 -336 0
-898 -850 -334 0
-899 -851 -335 0
-900 -852 -336 0
-901 -853 -334 0
-902 -854 -335 0
-903 -855 -336 0
-904 -856 -334 0
-905 -857 -335 0
-906 -858 -336 0
-907 -859 -334 0
-908 -860 -335 0
-909 -861 -336 0
-910 -862 -334 0
-911 -863 -335 0
-912 -864 -336 0
-913 -865 -334 0
-914 -866 -335 0
-915 -867 -336 0
-916 -868 -334 0
-917 -869 -335 0
-918 -870 -336 0
-919 -871 -334 0
-920 -872 -335 0
-921 -873 -336 0
-922 -874 -334 0
-923 -875 -335 0
-924 -876 -336 0
-925 -877 -334 0
-926 -878 -335 0
-927 -879 -336 0
-928 -880 -334 0
-929 -881 -335 0
-930 -882 -336 0
-931 -883 -334 0
-932 -884 -335 0
-933 -885 -336 0
-934 -886 -334 0
-935 -887 -335 0
-936 -888 -336 0
-937 -889 -334 0
-938 -890 -335 0
-939 -891 -336 0
-940 -892 -334 0
-941 -893 -335 0
-942 -894 -336 0
-943 -895 -334 0
-944 -896 -335 0
-945 -897 -336 0
-946 -898 -334 0
-947 -899 -335 0
-948 -900 -336 0
-949 -901 -334 0
-950 -902 -335 0
-951 -903 -336 0
-952 -904 -334 0
-953 -905 -335 0
-954 -906 -336 0
-955 -907 -334 0
-956 -908 -335 0
-957 -909 -336 0
-958 -910 -334 0
-959 -911 -335 0
-960 -912 -336 0
-961 -913 -334 0
-962 -914 -335 0
-963 -915 -336 0
-964 -916 -334 0
-965 -917 -335 0
-966 -918 -336 0
-967 -919 -334 0
-968 -920 -335 0
-969 -921 -336 0
-970 -922 -334 0
-971 -923 -335 0
-972 -924 -336 0
-973 -925 -334 0
-974 -926 -335 0
-975 -927 -336 0
-976 -928 -334 0
-977 -929 -335 0
-978 -930 -336 0
-979 -931 -334 0
-980 -932 -335 0
-981 -933 -336 0
-982 -934 -334 0
-983 -935 -335 0
-984 -936 -336 0
-985 -937 -334 0
-986 -938 -335 0
-987 -939 -336 0
-988 -940 -334 0
-989 -941 -335 0
-990 -942 -336 0
-991 -943 -334 0
-992 -944 -335 0
-993 -945 -336 0
-994 -946 -334 0
-995 -947 -335 0
-996 -948 -336 0
-997 -949 -334 0
-998 -950 -335 0
-999 -951 -336 0
-1000 -952 -334 0
-1001 -953 -335 0
-1002 -954 -336 0
-1003 -955 -334 0
-1004 -956 -335 0
-1005 -957 -336 0
-1006 -958 -334 0
-1007 -959 -335 0
-1008 -960 -336 0
-1009 -961 -334 0
-1010 -962 -335 0
-1011 -963 -336 0
-1012 -964 -334 0
-1013 -965 -335 0
-1014 -966 -336 0
-1015 -967 -334 0
-1016 -968 -335 0
-1017 -969 -336 0
-1018 -970 -334 0
-1019 -971 -335 0
-1020 -972 -336 0
-1021 -973 -334 0
-1022 -974 -335 0
-1023 -975 -336 0
-1024 -976 -334 0
-1025 -977 -335 0
-1026 -978 -336 0
-1027 -979 -334 0
-1028 -980 -335 0
-1029 -981 -336 0
-355 -52 -1 0
-356 -53 -2 0
-357 -54 -3 0
-355 -55 -4 0
-356 -56 -5 0
-357 -57 -6 0
-355 -58 -7 0
-356 -59 -8 0
-357 -60 -9 0
-355 -61 -10 0
-356 -62 -11 0
-357 -63 -12 0
-355 -64 -13 0
-356 -65 -14 0
-357 -66 -15 0
-355 -67 -16 0
-356 -68 -17 0
-357 -69 -18 0
-355 -70 -19 0
-356 -71 -20 0
-357 -72 -21 0
-355 -73 -22 0
-356 -74 -23 0
-357 -75 -24 0
-355 -76 -25 0
-356 -77 -26 0
-357 -78 -27 0
-355 -79 -28 0
-356 -80 -29 0
-357 -81 -30 0
-355 -82 -31 0
-356 -83 -32 0
-357 -84 -33 0
-355 -85 -34 0
-356 -86 -35 0
-357 -87 -36 0
-355 -88 -37 0
-356 -89 -38 0
-357 -90 -39 0
-355 -91 -40 0
-356 -92 -41 0
-357 -93 -42 0
-355 -94 -43 0
-356 -95 -44 0
-357 -96 -45 0
-355 -97 -46 0
-356 -98 -47 0
-357 -99 -48 0
-355 -100 -49 0
-356 -101 -50 0
-357 -102 -51 0
-355 -103 -52 0
-356 -104 -53 0
-357 -105 -54 0
-355 -106 -55 0
-356 -107 -56 0
-357 -108 -57 0
-355 -109 -58 0
-356 -110 -59 0
-357 -111 -60 0
-355 -112 -61 0
-356 -113 -62 0
-357 -114 -63 0
-355 -115 -64 0
-356 -116 -65 0
-357 -117 -66 0
-355 -118 -67 0
-356 -119 -68 0
-357 -120 -69 0
-355 -121 -70 0
-356 -122 -71 0
-357 -123 -72 0
-355 -124 -73 0
-356 -125 -74 0
-357 -126 -75 0
-355 -127 -76 0
-356 -128 -77 0
-357 -129 -78 0
-355 -130 -79 0
-356 -131 -80 0
-357 -132 -81 0
-355 -133 -82 0
-356 -134 -83 0
-357 -135 -84 0
-355 -136 -85 0
-356 -137 -86 0
-357 -138 -87 0
-355 -139 -88 0
-356 -140 -89 0
-357 -141 -90 0
-355 -142 -91 0
-356 -143 -92 0
-357 -144 -93 0
-355 -145 -94 0
-356 -146 -95 0
-357 -147 -96 0
-355 -148 -97 0
-356 -149 -98 0
-357 -150 -99 0
-355 -151 -100 0
-356 -152 -101 0
-357 -153 -102 0
-355 -154 -103 0
-356 -155 -104 0
-357 -156 -105 0
-355 -157 -106 0
-356 -158 -107 0
-357 -159 -108 0
-355 -160 -109 0
-356 -161 -110 0
-357 -162 -111 0
-355 -163 -112 0
-356 -164 -113 0
-357 -165 -114 0
-355 -166 -115 0
-356 -167 -116 0
-357 -168 -117 0
-355 -169 -118 0
-356 -170 -119 0
-357 -171 -120 0
-355 -172 -121 0
-356 -173 -122 0
-357 -174 -123 0
-355 -175 -124 0
-356 -176 -125 0
-357 -177 -126 0
-355 -178 -127 0
-356 -179 -128 0
-357 -180 -129 0
-355 -181 -130 0
-356 -182 -131 0
-357 -183 -132 0
-355 -184 -133 0
-356 -185 -134 0
-357 -186 -135 0
-355 -187 -136 0
-356 -188 -137 0
-357 -189 -138 0
-355 -190 -139 0
-356 -191 -140 0
-357 -192 -141 0
-355 -193 -142 0
-356 -194 -143 0
-357 -195 -144 0
-355 -196 -145 0
-356 -197 -146 0
-357 -198 -147 0
-355 -199 -148 0
-356 -200 -149 0
-357 -201 -150 0
-355 -202 -151 0
-356 -203 -152 0
-357 -204 -153 0
-355 -205 -154 0
-356 -206 -155 0
-357 -207 -156 0
-355 -208 -157 0
-356 -209 -158 0
-357 -210 -159 0
-355 -211 -160 0
-356 -212 -161 0
-357 -213 -162 0
-355 -214 -163 0
-356 -215 -164 0
-357 -216 -165 0
-355 -217 -166 0
-356 -218 -167 0
-357 -219 -168 0
-355 -220 -169 0
-356 -221 -170 0
-357 -222 -171 0
-355 -223 -172 0
-356 -224 -173 0
-357 -225 -174 0
-355 -226 -175 0
-356 -227 -176 0
-357 -228 -177 0
-355 -229 -178 0
-356 -230 -179 0
-357 -231 -180 0
-355 -232 -181 0
-356 -233 -182 0
-357 -234 -183 0
-355 -235 -184 0
-356 -236 -185 0
-357 -237 -186 0
-355 -238 -187 0
-356 -239 -188 0
-357 -240 -189 0
-355 -241 -190 0
-356 -242 -191 0
-357 -243 -192 0
-355 -244 -193 0
-356 -245 -194 0
-357 -246 -195 0
-355 -247 -196 0
-356 -248 -197 0
-357 -249 -198 0
-355 -250 -199 0
-356 -251 -200 0
-357 -252 -201 0
-355 -253 -202 0
-356 -254 -203 0
-357 -255 -204 0
-355 -256 -205 0
-356 -257 -206 0
-357 -258 -207 0
-355 -259 -208 0
-356 -260 -209 0
-357 -261 -210 0
-355 -262 -211 0
-356 -263 -212 0
-357 -264 -213 0
-355 -265 -214 0
-356 -266 -215 0
-357 -267 -216 0
-355 -268 -217 0
-356 -269 -218 0
-357 -270 -219 0
-355 -271 -220 0
-356 -272 -221 0
-357 -273 -222 0
-355 -274 -223 0
-356 -275 -224 0
-357 -276 -225 0
-355 -277 -226 0
-356 -278 -227 0
-357 -279 -228 0
-355 -280 -229 0
-356 -281 -230 0
-357 -282 -231 0
-355 -283 -232 0
-356 -284 -233 0
-357 -285 -234 0
-355 -286 -235 0
-356 -287 -236 0
-357 -288 -237 0
-355 -289 -238 0
-356 -290 -239 0
-357 -291 -240 0
-355 -292 -241 0
-356 -293 -242 0
-357 -294 -243 0
-355 -295 -244 0
-356 -296 -245 0
-357 -297 -246 0
-355 -298 -247 0
-356 -299 -248 0
-357 -300 -249 0
-355 -301 -250 0
-356 -302 -251 0
-357 -303 -252 0
-355 -304 -253 0
-356 -305 -254 0
-357 -306 -255 0
-355 -307 -256 0
-356 -308 -257 0
-357 -309 -258 0
-355 -310 -259 0
-356 -311 -260 0
-357 -312 -261 0
-355 -313 -262 0
-356 -314 -263 0
-357 -315 -264 0
-355 -316 -265 0
-356 -317 -266 0
-357 -318 -267 0
-355 -319 -268 0
-356 -320 -269 0
-357 -321 -270 0
-355 -322 -271 0
-356 -323 -272 0
-357 -324 -273 0
-355 -325 -274 0
-356 -326 -275 0
-357 -327 -276 0
-355 -328 -277 0
-356 -329 -278 0
-357 -330 -279 0
-355 -331 -280 0
-356 -332 -281 0
-357 -333 -282 0
-355 -334 -283 0
-356 -335 -284 0
-357 -336 -285 0
-355 -337 -286 0
-356 -338 -287 0
-357 -339 -288 0
-355 -340 -289 0
-356 -341 -290 0
-357 -342 -291 0
-355 -343 -292 0
-356 -344 -293 0
-357 -345 -294 0
-355 -346 -295 0
-356 -347 -296 0
-357 -348 -297 0
-355 -349 -298 0
-356 -350 -299 0
-357 -351 -300 0
-355 -352 -301 0
-356 -353 -302 0
-357 -354 -303 0
-355 -304 0
-356 -305 0
-357 -306 0
-358 -355 -307 0
-359 -356 -308 0
-360 -357 -309 0
-361 -355 -310 0
-362 -356 -311 0
-363 -357 -312 0
-364 -355 -313 0
-365 -356 -314 0
-366 -357 -315 0
-367 -355 -316 0
-368 -356 -317 0
-369 -357 -318 0
-370 -355 -319 0
-371 -356 -320 0
-372 -357 -321 0
-373 -355 -322 0
-374 -356 -323 0
-375 -357 -324 0
-376 -355 -325 0
-377 -356 -326 0
-378 -357 -327 0
-379 -355 -328 0
-380 -356 -329 0
-381 -357 -330 0
-382 -355 -331 0
-383 -356 -332 0
-384 -357 -333 0
-385 -355 -334 0
-386 -356 -335 0
-387 -357 -336 0
-388 -355 -337 0
-389 -356 -338 0
-390 -357 -339 0
-391 -355 -340 0
-392 -356 -341 0
-393 -357 -342 0
-394 -355 -343 0
-395 -356 -344 0
-396 -357 -345 0
-397 -355 -346 0
-398 -356 -347 0
-399 -357 -348 0
-400 -355 -349 0
-401 -356 -350 0
-402 -357 -351 0
-403 -355 -352 0
-404 -356 -353 0
-405 -357 -354 0
-406 -355 0
-407 -356 0
-408 -357 0
-409 -358 -355 0
-410 -359 -356 0
-411 -360 -357 0
-412 -361 -355 0
-413 -362 -356 0
-414 -363 -357 0
-415 -364 -355 0
-416 -365 -356 0
-417 -366 -357 0
-418 -367 -355 0
-419 -368 -356 0
-420 -369 -357 0
-421 -370 -355 0
-422 -371 -356 0
-423 -372 -357 0
-424 -373 -355 0
-425 -374 -356 0
-426 -375 -357 0
-427 -376 -355 0
-428 -377 -356 0
-429 -378 -357 0
-430 -379 -355 0
-431 -380 -356 0
-432 -381 -357 0
-433 -382 -355 0
-434 -383 -356 0
-435 -384 -357 0
-436 -385 -355 0
-437 -386 -356 0
-438 -387 -357 0
-439 -388 -355 0
-440 -389 -356 0
-441 -390 -357 0
-442 -391 -355 0
-443 -392 -356 0
-444 -393 -357 0
-445 -394 -355 0
-446 -395 -356 0
-447 -396 -357 0
-448 -397 -355 0
-449 -398 -356 0
-450 -399 -357 0
-451 -400 -355 0
-452 -401 -356 0
-453 -402 -357 0
-454 -403 -355 0
-455 -404 -356 0
-456 -405 -357 0
-457 -406 -355 0
-458 -407 -356 0
-459 -408 -357 0
-460 -409 -355 0
-461 -410 -356 0
-462 -411 -357 0
-463 -412 -355 0
-464 -413 -356 0
-465 -414 -357 0
-466 -415 -355 0
-467 -416 -356 0
-468 -417 -357 0
-469 -418 -355 0
-470 -419 -356 0
-471 -420 -357 0
-472 -421 -355 0
-473 -422 -356 0
-474 -423 -357 0
-475 -424 -355 0
-476 -425 -356 0
-477 -426 -357 0
-478 -427 -355 0
-479 -428 -356 0
-480 -429 -357 0
-481 -430 -355 0
-482 -431 -356 0
-483 -432 -357 0
-484 -433 -355 0
-485 -434 -356 0
-486 -435 -357 0
-487 -436 -355 0
-488 -437 -356 0
-489 -438 -357 0
-490 -439 -355 0
-491 -440 -356 0
-492 -441 -357 0
-493 -442 -355 0
-494 -443 -356 0
-495 -444 -357 0
-496 -445 -355 0
-497 -446 -356 0
-498 -447 -357 0
-499 -448 -355 0
-500 -449 -356 0
-501 -450 -357 0
-502 -451 -355 0
-503 -452 -356 0
-504 -453 -357 0
-505 -454 -355 0
-506 -455 -356 0
-507 -456 -357 0
-508 -457 -355 0
-509 -458 -356 0
-510 -459 -357 0
-511 -460 -355 0
-512 -461 -356 0
-513 -462 -357 0
-514 -463 -355 0
-515 -464 -356 0
-516 -465 -357 0
-517 -466 -355 0
-518 -467 -356 0
-519 -468 -357 0
-520 -469 -355 0
-521 -470 -356 0
-522 -471 -357 0
-523 -472 -355 0
-524 -473 -356 0
-525 -474 -357 0
-526 -475 -355 0
-527 -476 -356 0
-528 -477 -357 0
-529 -478 -355 0
-530 -479 -356 0
-531 -480 -357 0
-532 -481 -355 0
-533 -482 -356 0
-534 -483 -357 0
-535 -484 -355 0
-536 -485 -356 0
-537 -486 -357 0
-538 -487 -355 0
-539 -488 -356 0
-540 -489 -357 0
-541 -490 -355 0
-542 -491 -356 0
-543 -492 -357 0
-544 -493 -355 0
-545 -494 -356 0
-546 -495 -357 0
-547 -496 -355 0
-548 -497 -356 0
-549 -498 -357 0
-550 -499 -355 0
-551 -500 -356 0
-552 -501 -357 0
-553 -502 -355 0
-554 -503 -356 0
-555 -504 -357 0
-556 -505 -355 0
-557 -506 -356 0
-558 -507 -357 0
-559 -508 -355 0
-560 -509 -356 0
-561 -510 -357 0
-562 -511 -355 0
-563 -512 -356 0
-564 -513 -357 0
-565 -514 -355 0
-566 -515 -356 0
-567 -516 -357 0
-568 -517 -355 0
-569 -518 -356 0
-570 -519 -357 0
-571 -520 -355 0
-572 -521 -356 0
-573 -522 -357 0
-574 -523 -355 0
-575 -524 -356 0
-576 -525 -357 0
-577 -526 -355 0
-578 -527 -356 0
-579 -528 -357 0
-580 -529 -355 0
-581 -530 -356 0
-582 -531 -357 0
-583 -532 -355 0
-584 -533 -356 0
-585 -534 -357 0
-586 -535 -355 0
-587 -536 -356 0
-588 -537 -357 0
-589 -538 -355 0
-590 -539 -356 0
-591 -540 -357 0
-592 -541 -355 0
-593 -542 -356 0
-594 -543 -357 0
-595 -544 -355 0
-596 -545 -356 0
-597 -546 -357 0
-598 -547 -355 0
-599 -548 -356 0
-600 -549 -357 0
-601 -550 -355 0
-602 -551 -356 0
-603 -552 -357 0
-604 -553 -355 0
-605 -554 -356 0
-606 -555 -357 0
-607 -556 -355 0
-608 -557 -356 0
-609 -558 -357 0
-610 -559 -355 0
-611 -560 -356 0
-612 -561 -357 0
-613 -562 -355 0
-614 -563 -356 0
-615 -564 -357 0
-616 -565 -355 0
-617 -566 -356 0
-618 -567 -357 0
-619 -568 -355 0
-620 -569 -356 0
-621 -570 -357 0
-622 -571 -355 0
-623 -572 -356 0
-624 -573 -357 0
-625 -574 -355 0
-626 -575 -356 0
-627 -576 -357 0
-628 -577 -355 0
-629 -578 -356 0
-630 -579 -357 0
-631 -580 -355 0
-632 -581 -356 0
-633 -582 -357 0
-634 -583 -355 0
-635 -584 -356 0
-636 -585 -357 0
-637 -586 -355 0
-638 -587 -356 0
-639 -588 -357 0
-640 -589 -355 0
-641 -590 -356 0
-642 -591 -357 0
-643 -592 -355 0
-644 -593 -356 0
-645 -594 -357 0
-646 -595 -355 0
-647 -596 -356 0
-648 -597 -357 0
-649 -598 -355 0
-650 -599 -356 0
-651 -600 -357 0
-652 -601 -355 0
-653 -602 -356 0
-654 -603 -357 0
-655 -604 -355 0
-656 -605 -356 0
-657 -606 -357 0
-658 -607 -355 0
-659 -608 -356 0
-660 -609 -357 0
-661 -610 -355 0
-662 -611 -356 0
-663 -612 -357 0
-664 -613 -355 0
-665 -614 -356 0
-666 -615 -357 0
-667 -616 -355 0
-668 -617 -356 0
-669 -618 -357 0
-670 -619 -355 0
-671 -620 -356 0
-672 -621 -357 0
-673 -622 -355 0
-674 -623 -356 0
-675 -624 -357 0
-676 -625 -355 0
-677 -626 -356 0
-678 -627 -357 0
-679 -628 -355 0
-680 -629 -356 0
-681 -630 -357 0
-682 -631 -355 0
-683 -632 -356 0
-684 -633 -357 0
-685 -634 -355 0
-686 -635 -356 0
-687 -636 -357 0
-688 -637 -355 0
-689 -638 -356 0
-690 -639 -357 0
-691 -640 -355 0
-692 -641 -356 0
-693 -642 -357 0
-694 -643 -355 0
-695 -644 -356 0
-696 -645 -357 0
-697 -646 -355 0
-698 -647 -356 0
-699 -648 -357 0
-700 -649 -355 0
-701 -650 -356 0
-702 -651 -357 0
-703 -652 -355 0
-704 -653 -356 0
-705 -654 -357 0
-706 -655 -355 0
-707 -656 -356 0
-708 -657 -357 0
-709 -658 -355 0
-710 -659 -356 0
-711 -660 -357 0
-712 -661 -355 0
-713 -662 -356 0
-714 -663 -357 0
-715 -664 -355 0
-716 -665 -356 0
-717 -666 -357 0
-718 -667 -355 0
-719 -668 -356 0
-720 -669 -357 0
-721 -670 -355 0
-722 -671 -356 0
-723 -672 -357 0
-724 -673 -355 0
-725 -674 -356 0
-726 -675 -357 0
-727 -676 -355 0
-728 -677 -356 0
-729 -678 -357 0
-730 -679 -355 0
-731 -680 -356 0
-732 -681 -357 0
-733 -682 -355 0
-734 -683 -356 0
-735 -684 -357 0
-736 -685 -355 0
-737 -686 -356 0
-738 -687 -357 0
-739 -688 -355 0
-740 -689 -356 0
-741 -690 -357 0
-742 -691 -355 0
-743 -692 -356 0
-744 -693 -357 0
-745 -694 -355 0
-746 -695 -356 0
-747 -696 -357 0
-748 -697 -355 0
-749 -698 -356 0
-750 -699 -357 0
-751 -700 -355 0
-752 -701 -356 0
-753 -702 -357 0
-754 -703 -355 0
-755 -704 -356 0
-756 -705 -357 0
-757 -706 -355 0
-758 -707 -356 0
-759 -708 -357 0
-760 -709 -355 0
-761 -710 -356 0
-762 -711 -357 0
-763 -712 -355 0
-764 -713 -356 0
-765 -714 -357 0
-766 -715 -355 0
-767 -716 -356 0
-768 -717 -357 0
-769 -718 -355 0
-770 -719 -356 0
-771 -720 -357 0
-772 -721 -355 0
-773 -722 -356 0
-774 -723 -357 0
-775 -724 -355 0
-776 -725 -356 0
-777 -726 -357 0
-778 -727 -355 0
-779 -728 -356 0
-780 -729 -357 0
-781 -730 -355 0
-782 -731 -356 0
-783 -732 -357 0
-784 -733 -355 0
-785 -734 -356 0
-786 -735 -357 0
-787 -736 -355 0
-788 -737 -356 0
-789 -738 -357 0
-790 -739 -355 0
-791 -740 -356 0
-792 -741 -357 0
-793 -742 -355 0
-794 -743 -356 0
-795 -744 -357 0
-796 -745 -355 0
-797 -746 -356 0
-798 -747 -357 0
-799 -748 -355 0
-800 -749 -356 0
-801 -750 -357 0
-802 -751 -355 0
-803 -752 -356 0
-804 -753 -357 0
-805 -754 -355 0
-806 -755 -356 0
-807 -756 -357 0
-808 -757 -355 0
-809 -758 -356 0
-810 -759 -357 0
-811 -760 -355 0
-812 -761 -356 0
-813 -762 -357 0
-814 -763 -355 0
-815 -764 -356 0
-816 -765 -357 0
-817 -766 -355 0
-818 -767 -356 0
-819 -768 -357 0
-820 -769 -355 0
-821 -770 -356 0
-822 -771 -357 0
-823 -772 -355 0
-824 -773 -356 0
-825 -774 -357 0
-826 -775 -355 0
-827 -776 -356 0
-828 -777 -357 0
-829 -778 -355 0
-830 -779 -356 0
-831 -780 -357 0
-832 -781 -355 0
-833 -782 -356 0
-834 -783 -357 0
-835 -784 -355 0
-836 -785 -356 0
-837 -786 -357 0
-838 -787 -355 0
-839 -788 -356 0
-840 -789 -357 0
-841 -790 -355 0
-842 -791 -356 0
-843 -792 -357 0
-844 -793 -355 0
-845 -794 -356 0
-846 -795 -357 0
-847 -796 -355 0
-848 -797 -356 0
-849 -798 -357 0
-850 -799 -355 0
-851 -800 -356 0
-852 -801 -357 0
-853 -802 -355 0
-854 -803 -356 0
-855 -804 -357 0
-856 -805 -355 0
-857 -806 -356 0
-858 -807 -357 0
-859 -808 -355 0
-860 -809 -356 0
-861 -810 -357 0
-862 -811 -355 0
-863 -812 -356 0
-864 -813 -357 0
-865 -814 -355 0
-866 -815 -356 0
-867 -816 -357 0
-868 -817 -355 0
-869 -818 -356 0
-870 -819 -357 0
-871 -820 -355 0
-872 -821 -356 0
-873 -822 -357 0
-874 -823 -355 0
-875 -824 -356 0
-876 -825 -357 0
-877 -826 -355 0
-878 -827 -356 0
-879 -828 -357 0
-880 -829 -355 0
-881 -830 -356 0
-882 -831 -357 0
-883 -832 -355 0
-884 -833 -356 0
-885 -834 -357 0
-886 -835 -355 0
-887 -836 -356 0
-888 -837 -357 0
-889 -838 -355 0
-890 -839 -356 0
-891 -840 -357 0
-892 -841 -355 0
-893 -842 -356 0
-894 -843 -357 0
-895 -844 -355 0
-896 -845 -356 0
-897 -846 -357 0
-898 -847 -355 0
-899 -848 -356 0
-900 -849 -357 0
-901 -850 -355 0
-902 -851 -356 0
-903 -852 -357 0
-904 -853 -355 0
-905 -854 -356 0
-906 -855 -357 0
-907 -856 -355 0
-908 -857 -356 0
-909 -858 -357 0
-910 -859 -355 0
-911 -860 -356 0
-912 -861 -357 0
-913 -862 -355 0
-914 -863 -356 0
-915 -864 -357 0
-916 -865 -355 0
-917 -866 -356 0
-918 -867 -357 0
-919 -868 -355 0
-920 -869 -356 0
-921 -870 -357 0
-922 -871 -355 0
-923 -872 -356 0
-924 -873 -357 0
-925 -874 -355 0
-926 -875 -356 0
-927 -876 -357 0
-928 -877 -355 0
-929 -878 -356 0
-930 -879 -357 0
-931 -880 -355 0
-932 -881 -356 0
-933 -882 -357 0
-934 -883 -355 0
-935 -884 -356 0
-936 -885 -357 0
-937 -886 -355 0
-938 -887 -356 0
-939 -888 -357 0
-940 -889 -355 0
-941 -890 -356 0
-942 -891 -357 0
-943 -892 -355 0
-944 -893 -356 0
-945 -894 -357 0
-946 -895 -355 0
-947 -896 -356 0
-948 -897 -357 0
-949 -898 -355 0
-950 -899 -356 0
-951 -900 -357 0
-952 -901 -355 0
-953 -902 -356 0
-954 -903 -357 0
-955 -904 -355 0
-956 -905 -356 0
-957 -906 -357 0
-958 -907 -355 0
-959 -908 -356 0
-960 -909 -357 0
-961 -910 -355 0
-962 -911 -356 0
-963 -912 -357 0
-964 -913 -355 0
-965 -914 -356 0
-966 -915 -357 0
-967 -916 -355 0
-968 -917 -356 0
-969 -918 -357 0
-970 -919 -355 0
-971 -920 -356 0
-972 -921 -357 0
-973 -922 -355 0
-974 -923 -356 0
-975 -924 -357 0
-976 -925 -355 0
-977 -926 -356 0
-978 -927 -357 0
-979 -928 -355 0
-980 -929 -356 0
-981 -930 -357 0
-982 -931 -355 0
-983 -932 -356 0
-984 -933 -357 0
-985 -934 -355 0
-986 -935 -356 0
-987 -936 -357 0
-988 -937 -355 0
-989 -938 -356 0
-990 -939 -357 0
-991 -940 -355 0
-992 -941 -356 0
-993 -942 -357 0
-994 -943 -355 0
-995 -944 -356 0
-996 -945 -357 0
-997 -946 -355 0
-998 -947 -356 0
-999 -948 -357 0
-1000 -949 -355 0
-1001 -950 -356 0
-1002 -951 -357 0
-1003 -952 -355 0
-1004 -953 -356 0
-1005 -954 -357 0
-1006 -955 -355 0
-1007 -956 -356 0
-1008 -957 -357 0
-1009 -958 -355 0
-1010 -959 -356 0
-1011 -960 -357 0
-1012 -961 -355 0
-1013 -962 -356 0
-1014 -963 -357 0
-1015 -964 -355 0
-1016 -965 -356 0
-1017 -966 -357 0
-1018 -967 -355 0
-1019 -968 -356 0
-1020 -969 -357 0
-1021 -970 -355 0
-1022 -971 -356 0
-1023 -972 -357 0
-1024 -973 -355 0
-1025 -974 -356 0
-1026 -975 -357 0
-1027 -976 -355 0
-1028 -977 -356 0
-1029 -978 -357 0
-376 -55 -1 0
-377 -56 -2 0
-378 -57 -3 0
-376 -58 -4 0
-377 -59 -5 0
-378 -60 -6 0
-376 -61 -7 0
-377 -62 -8 0
-378 -63 -9 0
-376 -64 -10 0
-377 -65 -11 0
-378 -66 -12 0
-376 -67 -13 0
-377 -68 -14 0
-378 -69 -15 0
-376 -70 -16 0
-377 -71 -17 0
-378 -72 -18 0
-376 -73 -19 0
-377 -74 -20 0
-378 -75 -21 0
-376 -76 -22 0
-377 -77 -23 0
-378 -78 -24 0
-376 -79 -25 0
-377 -80 -26 0
-378 -81 -27 0
-376 -82 -28 0
-377 -83 -29 0
-378 -84 -30 0
-376 -85 -31 0
-377 -86 -32 0
-378 -87 -33 0
-376 -88 -34 0
-377 -89 -35 0
-378 -90 -36 0
-376 -91 -37 0
-377 -92 -38 0
-378 -93 -39 0
-376 -94 -40 0
-377 -95 -41 0
-378 -96 -42 0
-376 -97 -43 0
-377 -98 -44 0
-378 -99 -45 0
-376 -100 -46 0
-377 -101 -47 0
-378 -102 -48 0
-376 -103 -49 0
-377 -104 -50 0
-378 -105 -51 0
-376 -106 -52 0
-377 -107 -53 0
-378 -108 -54 0
-376 -109 -55 0
-377 -110 -56 0
-378 -111 -57 0
-376 -112 -58 0
-377 -113 -59 0
-378 -114 -60 0
-376 -115 -61 0
-377 -116 -62 0
-378 -117 -63 0
-376 -118 -64 0
-377 -119 -65 0
-378 -120 -66 0
-376 -121 -67 0
-377 -122 -68 0
-378 -123 -69 0
-376 -124 -70 0
-377 -125 -71 0
-378 -126 -72 0
-376 -127 -73 0
-377 -128 -74 0
-378 -129 -75 0
-376 -130 -76 0
-377 -131 -77 0
-378 -132 -78 0
-376 -133 -79 0
-377 -134 -80 0
-378 -135 -81 0
-376 -136 -82 0
-377 -137 -83 0
-378 -138 -84 0
-376 -139 -85 0
-377 -140 -86 0
-378 -141 -87 0
-376 -142 -88 0
-377 -143 -89 0
-378 -144 -90 0
-376 -145 -91 0
-377 -146 -92 0
-378 -147 -93 0
-376 -148 -94 0
-377 -149 -95 0
-378 -150 -96 0
-376 -151 -97 0
-377 -152 -98 0
-378 -153 -99 0
-376 -154 -100 0
-377 -155 -101 0
-378 -156 -102 0
-376 -157 -103 0
-377 -158 -104 0
-378 -159 -105 0
-376 -160 -106 0
-377 -161 -107 0
-378 -162 -108 0
-376 -163 -109 0
-377 -164 -110 0
-378 -165 -111 0
-376 -166 -112 0
-377 -167 -113 0
-378 -168 -114 0
-376 -169 -115 0
-377 -170 -116 0
-378 -171 -117 0
-376 -172 -118 0
-377 -173 -119 0
-378 -174 -120 0
-376 -175 -121 0
-377 -176 -122 0
-378 -177 -123 0
-376 -178 -124 0
-377 -179 -125 0
-378 -180 -126 0
-376 -181 -127 0
-377 -182 -128 0
-378 -183 -129 0
-376 -184 -130 0
-377 -185 -131 0
-378 -186 -132 0
-376 -187 -133 0
-377 -188 -134 0
-378 -189 -135 0
-376 -190 -136 0
-377 -191 -137 0
-378 -192 -138 0
-376 -193 -139 0
-377 -194 -140 0
-378 -195 -141 0
-376 -196 -142 0
-377 -197 -143 0
-378 -198 -144 0
-376 -199 -145 0
-377 -200 -146 0
-378 -201 -147 0
-376 -202 -148 0
-377 -203 -149 0
-378 -204 -150 0
-376 -205 -151 0
-377 -206 -152 0
-378 -207 -153 0
-376 -208 -154 0
-377 -209 -155 0
-378 -210 -156 0
-376 -211 -157 0
-377 -212 -158 0
-378 -213 -159 0
-376 -214 -160 0
-377 -215 -161 0
-378 -216 -162 0
-376 -217 -163 0
-377 -218 -164 0
-378 -219 -165 0
-376 -220 -166 0
-377 -221 -167 0
-378 -222 -168 0
-376 -223 -169 0
-377 -224 -170 0
-378 -225 -171 0
-376 -226 -172 0
-377 -227 -173 0
-378 -228 -174 0
-376 -229 -175 0
-377 -230 -176 0
-378 -231 -177 0
-376 -232 -178 0
-377 -233 -179 0
-378 -234 -180 0
-376 -235 -181 0
-377 -236 -182 0
-378 -237 -183 0
-376 -238 -184 0
-377 -239 -185 0
-378 -240 -186 0
-376 -241 -187 0
-377 -242 -188 0
-378 -243 -189 0
-376 -244 -190 0
-377 -245 -191 0
-378 -246 -192 0
-376 -247 -193 0
-377 -248 -194 0
-378 -249 -195 0
-376 -250 -196 0
-377 -251 -197 0
-378 -252 -198 0
-376 -253 -199 0
-377 -254 -200 0
-378 -255 -201 0
-376 -256 -202 0
-377 -257 -203 0
-378 -258 -204 0
-376 -259 -205 0
-377 -260 -206 0
-378 -261 -207 0
-376 -262 -208 0
-377 -263 -209 0
-378 -264 -210 0
-376 -265 -211 0
-377 -266 -212 0
-378 -267 -213 0
-376 -268 -214 0
-377 -269 -215 0
-378 -270 -216 0
-376 -271 -217 0
-377 -272 -218 0
-378 -273 -219 0
-376 -274 -220 0
-377 -275 -221 0
-378 -276 -222 0
-376 -277 -223 0
-377 -278 -224 0
-378 -279 -225 0
-376 -280 -226 0
-377 -281 -227 0
-378 -282 -228 0
-376 -283 -229 0
-377 -284 -230 0
-378 -285 -231 0
-376 -286 -232 0
-377 -287 -233 0
-378 -288 -234 0
-376 -289 -235 0
-377 -290 -236 0
-378 -291 -237 0
-376 -292 -238 0
-377 -293 -239 0
-378 -294 -240 0
-376 -295 -241 0
-377 -296 -242 0
-378 -297 -243 0
-376 -298 -244 0
-377 -299 -245 0
-378 -300 -246 0
-376 -301 -247 0
-377 -302 -248 0
-378 -303 -249 0
-376 -304 -250 0
-377 -305 -251 0
-378 -306 -252 0
-376 -307 -253 0
-377 -308 -254 0
-378 -309 -255 0
-376 -310 -256 0
-377 -311 -257 0
-378 -312 -258 0
-376 -313 -259 0
-377 -314 -260 0
-378 -315 -261 0
-376 -316 -262 0
-377 -317 -263 0
-378 -318 -264 0
-376 -319 -265 0
-377 -320 -266 0
-378 -321 -267 0
-376 -322 -268 0
-377 -323 -269 0
-378 -324 -270 0
-376 -325 -271 0
-377 -326 -272 0
-378 -327 -273 0
-376 -328 -274 0
-377 -329 -275 0
-378 -330 -276 0
-376 -331 -277 0
-377 -332 -278 0
-378 -333 -279 0
-376 -334 -280 0
-377 -335 -281 0
-378 -336 -282 0
-376 -337 -283 0
-377 -338 -284 0
-378 -339 -285 0
-376 -340 -286 0
-377 -341 -287 0
-378 -342 -288 0
-376 -343 -289 0
-377 -344 -290 0
-378 -345 -291 0
-376 -346 -292 0
-377 -347 -293 0
-378 -348 -294 0
-376 -349 -295 0
-377 -350 -296 0
-378 -351 -297 0
-376 -352 -298 0
-377 -353 -299 0
-378 -354 -300 0
-376 -355 -301 0
-377 -356 -302 0
-378 -357 -303 0
-376 -358 -304 0
-377 -359 -305 0
-378 -360 -306 0
-376 -361 -307 0
-377 -362 -308 0
-378 -363 -309 0
-376 -364 -310 0
-377 -365 -311 0
-378 -366 -312 0
-376 -367 -313 0
-377 -368 -314 0
-378 -369 -315 0
-376 -370 -316 0
-377 -371 -317 0
-378 -372 -318 0
-376 -373 -319 0
-377 -374 -320 0
-378 -375 -321 0
-376 -322 0
-377 -323 0
-378 -324 0
-379 -376 -325 0
-380 -377 -326 0
-381 -378 -327 0
-382 -376 -328 0
-383 -377 -329 0
-384 -378 -330 0
-385 -376 -331 0
-386 -377 -332 0
-387 -378 -333 0
-388 -376 -334 0
-389 -377 -335 0
-390 -378 -336 0
-391 -376 -337 0
-392 -377 -338 0
-393 -378 -339 0
-394 -376 -340 0
-395 -377 -341 0
-396 -378 -342 0
-397 -376 -343 0
-398 -377 -344 0
-399 -378 -345 0
-400 -376 -346 0
-401 -377 -347 0
-402 -378 -348 0
-403 -376 -349 0
-404 -377 -350 0
-405 -378 -351 0
-406 -376 -352 0
-407 -377 -353 0
-408 -378 -354 0
-409 -376 -355 0
-410 -377 -356 0
-411 -378 -357 0
-412 -376 -358 0
-413 -377 -359 0
-414 -378 -360 0
-415 -376 -361 0
-416 -377 -362 0
-417 -378 -363 0
-418 -376 -364 0
-419 -377 -365 0
-420 -378 -366 0
-421 -376 -367 0
-422 -377 -368 0
-423 -378 -369 0
-424 -376 -370 0
-425 -377 -371 0
-426 -378 -372 0
-427 -376 -373 0
-428 -377 -374 0
-429 -378 -375 0
-430 -376 0
-431 -377 0
-432 -378 0
-433 -379 -376 0
-434 -380 -377 0
-435 -381 -378 0
-436 -382 -376 0
-437 -383 -377 0
-438 -384 -378 0
-439 -385 -376 0
-440 -386 -377 0
-441 -387 -378 0
-442 -388 -376 0
-443 -389 -377 0
-444 -390 -378 0
-445 -391 -376 0
-446 -392 -377 0
-447 -393 -378 0
-448 -394 -376 0
-449 -395 -377 0
-450 -396 -378 0
-451 -397 -376 0
-452 -398 -377 0
-453 -399 -378 0
-454 -400 -376 0
-455 -401 -377 0
-456 -402 -378 0
-457 -403 -376 0
-458 -404 -377 0
-459 -405 -378 0
-460 -406 -376 0
-461 -407 -377 0
-462 -408 -378 0
-463 -409 -376 0
-464 -410 -377 0
-465 -411 -378 0
-466 -412 -376 0
-467 -413 -377 0
-468 -414 -378 0
-469 -415 -376 0
-470 -416 -377 0
-471 -417 -378 0
-472 -418 -376 0
-473 -419 -377 0
-474 -420 -378 0
-475 -421 -376 0
-476 -422 -377 0
-477 -423 -378 0
-478 -424 -376 0
-479 -425 -377 0
-480 -426 -378 0
-481 -427 -376 0
-482 -428 -377 0
-483 -429 -378 0
-484 -430 -376 0
-485 -431 -377 0
-486 -432 -378 0
-487 -433 -376 0
-488 -434 -377 0
-489 -435 -378 0
-490 -436 -376 0
-491 -437 -377 0
-492 -438 -378 0
-493 -439 -376 0
-494 -440 -377 0
-495 -441 -378 0
-496 -442 -376 0
-497 -443 -377 0
-498 -444 -378 0
-499 -445 -376 0
-500 -446 -377 0
-501 -447 -378 0
-502 -448 -376 0
-503 -449 -377 0
-504 -450 -378 0
-505 -451 -376 0
-506 -452 -377 0
-507 -453 -378 0
-508 -454 -376 0
-509 -455 -377 0
-510 -456 -378 0
-511 -457 -376 0
-512 -458 -377 0
-513 -459 -378 0
-514 -460 -376 0
-515 -461 -377 0
-516 -462 -378 0
-517 -463 -376 0
-518 -464 -377 0
-519 -465 -378 0
-520 -466 -376 0
-521 -467 -377 0
-522 -468 -378 0
-523 -469 -376 0
-524 -470 -377 0
-525 -471 -378 0
-526 -472 -376 0
-527 -473 -377 0
-528 -474 -378 0
-529 -475 -376 0
-530 -476 -377 0
-531 -477 -378 0
-532 -478 -376 0
-533 -479 -377 0
-534 -480 -378 0
-535 -481 -376 0
-536 -482 -377 0
-537 -483 -378 0
-538 -484 -376 0
-539 -485 -377 0
-540 -486 -378 0
-541 -487 -376 0
-542 -488 -377 0
-543 -489 -378 0
-544 -490 -376 0
-545 -491 -377 0
-546 -492 -378 0
-547 -493 -376 0
-548 -494 -377 0
-549 -495 -378 0
-550 -496 -376 0
-551 -497 -377 0
-552 -498 -378 0
-553 -499 -376 0
-554 -500 -377 0
-555 -501 -378 0
-556 -502 -376 0
-557 -503 -377 0
-558 -504 -378 0
-559 -505 -376 0
-560 -506 -377 0
-561 -507 -378 0
-562 -508 -376 0
-563 -509 -377 0
-564 -510 -378 0
-565 -511 -376 0
-566 -512 -377 0
-567 -513 -378 0
-568 -514 -376 0
-569 -515 -377 0
-570 -516 -378 0
-571 -517 -376 0
-572 -518 -377 0
-573 -519 -378 0
-574 -520 -376 0
-575 -521 -377 0
-576 -522 -378 0
-577 -523 -376 0
-578 -524 -377 0
-579 -525 -378 0
-580 -526 -376 0
-581 -527 -377 0
-582 -528 -378 0
-583 -529 -376 0
-584 -530 -377 0
-585 -531 -378 0
-586 -532 -376 0
-587 -533 -377 0
-588 -534 -378 0
-589 -535 -376 0
-590 -536 -377 0
-591 -537 -378 0
-592 -538 -376 0
-593 -539 -377 0
-594 -540 -378 0
-595 -541 -376 0
-596 -542 -377 0
-597 -543 -378 0
-598 -544 -376 0
-599 -545 -377 0
-600 -546 -378 0
-601 -547 -376 0
-602 -548 -377 0
-603 -549 -378 0
-604 -550 -376 0
-605 -551 -377 0
-606 -552 -378 0
-607 -553 -376 0
-608 -554 -377 0
-609 -555 -378 0
-610 -556 -376 0
-611 -557 -377 0
-612 -558 -378 0
-613 -559 -376 0
-614 -560 -377 0
-615 -561 -378 0
-616 -562 -376 0
-617 -563 -377 0
-618 -564 -378 0
-619 -565 -376 0
-620 -566 -377 0
-621 -567 -378 0
-622 -568 -376 0
-623 -569 -377 0
-624 -570 -378 0
-625 -571 -376 0
-626 -572 -377 0
-627 -573 -378 0
-628 -574 -376 0
-629 -575 -377 0
-630 -576 -378 0
-631 -577 -376 0
-632 -578 -377 0
-633 -579 -378 0
-634 -580 -376 0
-635 -581 -377 0
-636 -582 -378 0
-637 -583 -376 0
-638 -584 -377 0
-639 -585 -378 0
-640 -586 -376 0
-641 -587 -377 0
-642 -588 -378 0
-643 -589 -376 0
-644 -590 -377 0
-645 -591 -378 0
-646 -592 -376 0
-647 -593 -377 0
-648 -594 -378 0
-649 -595 -376 0
-650 -596 -377 0
-651 -597 -378 0
-652 -598 -376 0
-653 -599 -377 0
-654 -600 -378 0
-655 -601 -376 0
-656 -602 -377 0
-657 -603 -378 0
-658 -604 -376 0
-659 -605 -377 0
-660 -606 -378 0
-661 -607 -376 0
-662 -608 -377 0
-663 -609 -378 0
-664 -610 -376 0
-665 -611 -377 0
-666 -612 -378 0
-667 -613 -376 0
-668 -614 -377 0
-669 -615 -378 0
-670 -616 -376 0
-671 -617 -377 0
-672 -618 -378 0
-673 -619 -376 0
-674 -620 -377 0
-675 -621 -378 0
-676 -622 -376 0
-677 -623 -377 0
-678 -624 -378 0
-679 -625 -376 0
-680 -626 -377 0
-681 -627 -378 0
-682 -628 -376 0
-683 -629 -377 0
-684 -630 -378 0
-685 -631 -376 0
-686 -632 -377 0
-687 -633 -378 0
-688 -634 -376 0
-689 -635 -377 0
-690 -636 -378 0
-691 -637 -376 0
-692 -638 -377 0
-693 -639 -378 0
-694 -640 -376 0
-695 -641 -377 0
-696 -642 -378 0
-697 -643 -376 0
-698 -644 -377 0
-699 -645 -378 0
-700 -646 -376 0
-701 -647 -377 0
-702 -648 -378 0
-703 -649 -376 0
-704 -650 -377 0
-705 -651 -378 0
-706 -652 -376 0
-707 -653 -377 0
-708 -654 -378 0
-709 -655 -376 0
-710 -656 -377 0
-711 -657 -378 0
-712 -658 -376 0
-713 -659 -377 0
-714 -660 -378 0
-715 -661 -376 0
-716 -662 -377 0
-717 -663 -378 0
-718 -664 -376 0
-719 -665 -377 0
-720 -666 -378 0
-721 -667 -376 0
-722 -668 -377 0
-723 -669 -378 0
-724 -670 -376 0
-725 -671 -377 0
-726 -672 -378 0
-727 -673 -376 0
-728 -674 -377 0
-729 -675 -378 0
-730 -676 -376 0
-731 -677 -377 0
-732 -678 -378 0
-733 -679 -376 0
-734 -680 -377 0
-735 -681 -378 0
-736 -682 -376 0
-737 -683 -377 0
-738 -684 -378 0
-739 -685 -376 0
-740 -686 -377 0
-741 -687 -378 0
-742 -688 -376 0
-743 -689 -377 0
-744 -690 -378 0
-745 -691 -376 0
-746 -692 -377 0
-747 -693 -378 0
-748 -694 -376 0
-749 -695 -377 0
-750 -696 -378 0
-751 -697 -376 0
-752 -698 -377 0
-753 -699 -378 0
-754 -700 -376 0
-755 -701 -377 0
-756 -702 -378 0
-757 -703 -376 0
-758 -704 -377 0
-759 -705 -378 0
-760 -706 -376 0
-761 -707 -377 0
-762 -708 -378 0
-763 -709 -376 0
-764 -710 -377 0
-765 -711 -378 0
-766 -712 -376 0
-767 -713 -377 0
-768 -714 -378 0
-769 -715 -376 0
-770 -716 -377 0
-771 -717 -378 0
-772 -718 -376 0
-773 -719 -377 0
-774 -720 -378 0
-775 -721 -376 0
-776 -722 -377 0
-777 -723 -378 0
-778 -724 -376 0
-779 -725 -377 0
-780 -726 -378 0
-781 -727 -376 0
-782 -728 -377 0
-783 -729 -378 0
-784 -730 -376 0
-785 -731 -377 0
-786 -732 -378 0
-787 -733 -376 0
-788 -734 -377 0
-789 -735 -378 0
-790 -736 -376 0
-791 -737 -377 0
-792 -738 -378 0
-793 -739 -376 0
-794 -740 -377 0
-795 -741 -378 0
-796 -742 -376 0
-797 -743 -377 0
-798 -744 -378 0
-799 -745 -376 0
-800 -746 -377 0
-801 -747 -378 0
-802 -748 -376 0
-803 -749 -377 0
-804 -750 -378 0
-805 -751 -376 0
-806 -752 -377 0
-807 -753 -378 0
-808 -754 -376 0
-809 -755 -377 0
-810 -756 -378 0
-811 -757 -376 0
-812 -758 -377 0
-813 -759 -378 0
-814 -760 -376 0
-815 -761 -377 0
-816 -762 -378 0
-817 -763 -376 0
-818 -764 -377 0
-819 -765 -378 0
-820 -766 -376 0
-821 -767 -377 0
-822 -768 -378 0
-823 -769 -376 0
-824 -770 -377 0
-825 -771 -378 0
-826 -772 -376 0
-827 -773 -377 0
-828 -774 -378 0
-829 -775 -376 0
-830 -776 -377 0
-831 -777 -378 0
-832 -778 -376 0
-833 -779 -377 0
-834 -780 -378 0
-835 -781 -376 0
-836 -782 -377 0
-837 -783 -378 0
-838 -784 -376 0
-839 -785 -377 0
-840 -786 -378 0
-841 -787 -376 0
-842 -788 -377 0
-843 -789 -378 0
-844 -790 -376 0
-845 -791 -377 0
-846 -792 -378 0
-847 -793 -376 0
-848 -794 -377 0
-849 -795 -378 0
-850 -796 -376 0
-851 -797 -377 0
-852 -798 -378 0
-853 -799 -376 0
-854 -800 -377 0
-855 -801 -378 0
-856 -802 -376 0
-857 -803 -377 0
-858 -804 -378 0
-859 -805 -376 0
-860 -806 -377 0
-861 -807 -378 0
-862 -808 -376 0
-863 -809 -377 0
-864 -810 -378 0
-865 -811 -376 0
-866 -812 -377 0
-867 -813 -378 0
-868 -814 -376 0
-869 -815 -377 0
-870 -816 -378 0
-871 -817 -376 0
-872 -818 -377 0
-873 -819 -378 0
-874 -820 -376 0
-875 -821 -377 0
-876 -822 -378 0
-877 -823 -376 0
-878 -824 -377 0
-879 -825 -378 0
-880 -826 -376 0
-881 -827 -377 0
-882 -828 -378 0
-883 -829 -376 0
-884 -830 -377 0
-885 -831 -378 0
-886 -832 -376 0
-887 -833 -377 0
-888 -834 -378 0
-889 -835 -376 0
-890 -836 -377 0
-891 -837 -378 0
-892 -838 -376 0
-893 -839 -377 0
-894 -840 -378 0
-895 -841 -376 0
-896 -842 -377 0
-897 -843 -378 0
-898 -844 -376 0
-899 -845 -377 0
-900 -846 -378 0
-901 -847 -376 0
-902 -848 -377 0
-903 -849 -378 0
-904 -850 -376 0
-905 -851 -377 0
-906 -852 -378 0
-907 -853 -376 0
-908 -854 -377 0
-909 -855 -378 0
-910 -856 -376 0
-911 -857 -377 0
-912 -858 -378 0
-913 -859 -376 0
-914 -860 -377 0
-915 -861 -378 0
-916 -862 -376 0
-917 -863 -377 0
-918 -864 -378 0
-919 -865 -376 0
-920 -866 -377 0
-921 -867 -378 0
-922 -868 -376 0
-923 -869 -377 0
-924 -870 -378 0
-925 -871 -376 0
-926 -872 -377 0
-927 -873 -378 0
-928 -874 -376 0
-929 -875 -377 0
-930 -876 -378 0
-931 -877 -376 0
-932 -878 -377 0
-933 -879 -378 0
-934 -880 -376 0
-935 -881 -377 0
-936 -882 -378 0
-937 -883 -376 0
-938 -884 -377 0
-939 -885 -378 0
-940 -886 -376 0
-941 -887 -377 0
-942 -888 -378 0
-943 -889 -376 0
-944 -890 -377 0
-945 -891 -378 0
-946 -892 -376 0
-947 -893 -377 0
-948 -894 -378 0
-949 -895 -376 0
-950 -896 -377 0
-951 -897 -378 0
-952 -898 -376 0
-953 -899 -377 0
-954 -900 -378 0
-955 -901 -376 0
-956 -902 -377 0
-957 -903 -378 0
-958 -904 -376 0
-959 -905 -377 0
-960 -906 -378 0
-961 -907 -376 0
-962 -908 -377 0
-963 -909 -378 0
-964 -910 -376 0
-965 -911 -377 0
-966 -912 -378 0
-967 -913 -376 0
-968 -914 -377 0
-969 -915 -378 0
-970 -916 -376 0
-971 -917 -377 0
-972 -918 -378 0
-973 -919 -376 0
-974 -920 -377 0
-975 -921 -378 0
-976 -922 -376 0
-977 -923 -377 0
-978 -924 -378 0
-979 -925 -376 0
-980 -926 -377 0
-981 -927 -378 0
-982 -928 -376 0
-983 -929 -377 0
-984 -930 -378 0
-985 -931 -376 0
-986 -932 -377 0
-987 -933 -378 0
-988 -934 -376 0
-989 -935 -377 0
-990 -936 -378 0
-991 -937 -376 0
-992 -938 -377 0
-993 -939 -378 0
-994 -940 -376 0
-995 -941 -377 0
-996 -942 -378 0
-997 -943 -376 0
-998 -944 -377 0
-999 -945 -378 0
-1000 -946 -376 0
-1001 -947 -377 0
-1002 -948 -378 0
-1003 -949 -376 0
-1004 -950 -377 0
-1005 -951 -378 0
-1006 -952 -376 0
-1007 -953 -377 0
-1008 -954 -378 0
-1009 -955 -376 0
-1010 -956 -377 0
-1011 -957 -378 0
-1012 -958 -376 0
-1013 -959 -377 0
-1014 -960 -378 0
-1015 -961 -376 0
-1016 -962 -377 0
-1017 -963 -378 0
-1018 -964 -376 0
-1019 -965 -377 0
-1020 -966 -378 0
-1021 -967 -376 0
-1022 -968 -377 0
-1023 -969 -378 0
-1024 -970 -376 0
-1025 -971 -377 0
-1026 -972 -378 0
-1027 -973 -376 0
-1028 -974 -377 0
-1029 -975 -378 0
-397 -58 -1 0
-398 -59 -2 0
-399 -60 -3 0
-397 -61 -4 0
-398 -62 -5 0
-399 -63 -6 0
-397 -64 -7 0
-398 -65 -8 0
-399 -66 -9 0
-397 -67 -10 0
-398 -68 -11 0
-399 -69 -12 0
-397 -70 -13 0
-398 -71 -14 0
-399 -72 -15 0
-397 -73 -16 0
-398 -74 -17 0
-399 -75 -18 0
-397 -76 -19 0
-398 -77 -20 0
-399 -78 -21 0
-397 -79 -22 0
-398 -80 -23 0
-399 -81 -24 0
-397 -82 -25 0
-398 -83 -26 0
-399 -84 -27 0
-397 -85 -28 0
-398 -86 -29 0
-399 -87 -30 0
-397 -88 -31 0
-398 -89 -32 0
-399 -90 -33 0
-397 -91 -34 0
-398 -92 -35 0
-399 -93 -36 0
-397 -94 -37 0
-398 -95 -38 0
-399 -96 -39 0
-397 -97 -40 0
-398 -98 -41 0
-399 -99 -42 0
-397 -100 -43 0
-398 -101 -44 0
-399 -102 -45 0
-397 -103 -46 0
-398 -104 -47 0
-399 -105 -48 0
-397 -106 -49 0
-398 -107 -50 0
-399 -108 -51 0
-397 -109 -52 0
-398 -110 -53 0
-399 -111 -54 0
-397 -112 -55 0
-398 -113 -56 0
-399 -114 -57 0
-397 -115 -58 0
-398 -116 -59 0
-399 -117 -60 0
-397 -118 -61 0
-398 -119 -62 0
-399 -120 -63 0
-397 -121 -64 0
-398 -122 -65 0
-399 -123 -66 0
-397 -124 -67 0
-398 -125 -68 0
-399 -126 -69 0
-397 -127 -70 0
-398 -128 -71 0
-399 -129 -72 0
-397 -130 -73 0
-398 -131 -74 0
-399 -132 -75 0
-397 -133 -76 0
-398 -134 -77 0
-399 -135 -78 0
-397 -136 -79 0
-398 -137 -80 0
-399 -138 -81 0
-397 -139 -82 0
-398 -140 -83 0
-399 -141 -84 0
-397 -142 -85 0
-398 -143 -86 0
-399 -144 -87 0
-397 -145 -88 0
-398 -146 -89 0
-399 -147 -90 0
-397 -148 -91 0
-398 -149 -92 0
-399 -150 -93 0
-397 -151 -94 0
-398 -152 -95 0
-399 -153 -96 0
-397 -154 -97 0
-398 -155 -98 0
-399 -156 -99 0
-397 -157 -100 0
-398 -158 -101 0
-399 -159 -102 0
-397 -160 -103 0
-398 -161 -104 0
-399 -162 -105 0
-397 -163 -106 0
-398 -164 -107 0
-399 -165 -108 0
-397 -166 -109 0
-398 -167 -110 0
-399 -168 -111 0
-397 -169 -112 0
-398 -170 -113 0
-399 -171 -114 0
-397 -172 -115 0
-398 -173 -116 0
-399 -174 -117 0
-397 -175 -118 0
-398 -176 -119 0
-399 -177 -120 0
-397 -178 -121 0
-398 -179 -122 0
-399 -180 -123 0
-397 -181 -124 0
-398 -182 -125 0
-399 -183 -126 0
-397 -184 -127 0
-398 -185 -128 0
-399 -186 -129 0
-397 -187 -130 0
-398 -188 -131 0
-399 -189 -132 0
-397 -190 -133 0
-398 -191 -134 0
-399 -192 -135 0
-397 -193 -136 0
-398 -194 -137 0
-399 -195 -138 0
-397 -196 -139 0
-398 -197 -140 0
-399 -198 -141 0
-397 -199 -142 0
-398 -200 -143 0
-399 -201 -144 0
-397 -202 -145 0
-398 -203 -146 0
-399 -204 -147 0
-397 -205 -148 0
-398 -206 -149 0
-399 -207 -150 0
-397 -208 -151 0
-398 -209 -152 0
-399 -210 -153 0
-397 -211 -154 0
-398 -212 -155 0
-399 -213 -156 0
-397 -214 -157 0
-398 -215 -158 0
-399 -216 -159 0
-397 -217 -160 0
-398 -218 -161 0
-399 -219 -162 0
-397 -220 -163 0
-398 -221 -164 0
-399 -222 -165 0
-397 -223 -166 0
-398 -224 -167 0
-399 -225 -168 0
-397 -226 -169 0
-398 -227 -170 0
-399 -228 -171 0
-397 -229 -172 0
-398 -230 -173 0
-399 -231 -174 0
-397 -232 -175 0
-398 -233 -176 0
-399 -234 -177 0
-397 -235 -178 0
-398 -236 -179 0
-399 -237 -180 0
-397 -238 -181 0
-398 -239 -182 0
-399 -240 -183 0
-397 -241 -184 0
-398 -242 -185 0
-399 -243 -186 0
-397 -244 -187 0
-398 -245 -188 0
-399 -246 -189 0
-397 -247 -190 0
-398 -248 -191 0
-399 -249 -192 0
-397 -250 -193 0
-398 -251 -194 0
-399 -252 -195 0
-397 -253 -196 0
-398 -254 -197 0
-399 -255 -198 0
-397 -256 -199 0
-398 -257 -200 0
-399 -258 -201 0
-397 -259 -202 0
-398 -260 -203 0
-399 -261 -204 0
-397 -262 -205 0
-398 -263 -206 0
-399 -264 -207 0
-397 -265 -208 0
-398 -266 -209 0
-399 -267 -210 0
-397 -268 -211 0
-398 -269 -212 0
-399 -270 -213 0
-397 -271 -214 0
-398 -272 -215 0
-399 -273 -216 0
-397 -274 -217 0
-398 -275 -218 0
-399 -276 -219 0
-397 -277 -220 0
-398 -278 -221 0
-399 -279 -222 0
-397 -280 -223 0
-398 -281 -224 0
-399 -282 -225 0
-397 -283 -226 0
-398 -284 -227 0
-399 -285 -228 0
-397 -286 -229 0
-398 -287 -230 0
-399 -288 -231 0
-397 -289 -232 0
-398 -290 -233 0
-399 -291 -234 0
-397 -292 -235 0
-398 -293 -236 0
-399 -294 -237 0
-397 -295 -238 0
-398 -296 -239 0
-399 -297 -240 0
-397 -298 -241 0
-398 -299 -242 0
-399 -300 -243 0
-397 -301 -244 0
-398 -302 -245 0
-399 -303 -246 0
-397 -304 -247 0
-398 -305 -248 0
-399 -306 -249 0
-397 -307 -250 0
-398 -308 -251 0
-399 -309 -252 0
-397 -310 -253 0
-398 -311 -254 0
-399 -312 -255 0
-397 -313 -256 0
-398 -314 -257 0
-399 -315 -258 0
-397 -316 -259 0
-398 -317 -260 0
-399 -318 -261 0
-397 -319 -262 0
-398 -320 -263 0
-399 -321 -264 0
-397 -322 -265 0
-398 -323 -266 0
-399 -324 -267 0
-397 -325 -268 0
-398 -326 -269 0
-399 -327 -270 0
-397 -328 -271 0
-398 -329 -272 0
-399 -330 -273 0
-397 -331 -274 0
-398 -332 -275 0
-399 -333 -276 0
-397 -334 -277 0
-398 -335 -278 0
-399 -336 -279 0
-397 -337 -280 0
-398 -338 -281 0
-399 -339 -282 0
-397 -340 -283 0
-398 -341 -284 0
-399 -342 -285 0
-397 -343 -286 0
-398 -344 -287 0
-399 -345 -288 0
-397 -346 -289 0
-398 -347 -290 0
-399 -348 -291 0
-397 -349 -292 0
-398 -350 -293 0
-399 -351 -294 0
-397 -352 -295 0
-398 -353 -296 0
-399 -354 -297 0
-397 -355 -298 0
-398 -356 -299 0
-399 -357 -300 0
-397 -358 -301 0
-398 -359 -302 0
-399 -360 -303 0
-397 -361 -304 0
-398 -362 -305 0
-399 -363 -306 0
-397 -364 -307 0
-398 -365 -308 0
-399 -366 -309 0
-397 -367 -310 0
-398 -368 -311 0
-399 -369 -312 0
-397 -370 -313 0
-398 -371 -314 0
-399 -372 -315 0
-397 -373 -316 0
-398 -374 -317 0
-399 -375 -318 0
-397 -376 -319 0
-398 -377 -320 0
-399 -378 -321 0
-397 -379 -322 0
-398 -380 -323 0
-399 -381 -324 0
-397 -382 -325 0
-398 -383 -326 0
-399 -384 -327 0
-397 -385 -328 0
-398 -386 -329 0
-399 -387 -330 0
-397 -388 -331 0
-398 -389 -332 0
-399 -390 -333 0
-397 -391 -334 0
-398 -392 -335 0
-399 -393 -336 0
-397 -394 -337 0
-398 -395 -338 0
-399 -396 -339 0
-397 -340 0
-398 -341 0
-399 -342 0
-400 -397 -343 0
-401 -398 -344 0
-402 -399 -345 0
-403 -397 -346 0
-404 -398 -347 0
-405 -399 -348 0
-406 -397 -349 0
-407 -398 -350 0
-408 -399 -351 0
-409 -397 -352 0
-410 -398 -353 0
-411 -399 -354 0
-412 -397 -355 0
-413 -398 -356 0
-414 -399 -357 0
-415 -397 -358 0
-416 -398 -359 0
-417 -399 -360 0
-418 -397 -361 0
-419 -398 -362 0
-420 -399 -363 0
-421 -397 -364 0
-422 -398 -365 0
-423 -399 -366 0
-424 -397 -367 0
-425 -398 -368 0
-426 -399 -369 0
-427 -397 -370 0
-428 -398 -371 0
-429 -399 -372 0
-430 -397 -373 0
-431 -398 -374 0
-432 -399 -375 0
-433 -397 -376 0
-434 -398 -377 0
-435 -399 -378 0
-436 -397 -379 0
-437 -398 -380 0
-438 -399 -381 0
-439 -397 -382 0
-440 -398 -383 0
-441 -399 -384 0
-442 -397 -385 0
-443 -398 -386 0
-444 -399 -387 0
-445 -397 -388 0
-446 -398 -389 0
-447 -399 -390 0
-448 -397 -391 0
-449 -398 -392 0
-450 -399 -393 0
-451 -397 -394 0
-452 -398 -395 0
-453 -399 -396 0
-454 -397 0
-455 -398 0
-456 -399 0
-457 -400 -397 0
-458 -401 -398 0
-459 -402 -399 0
-460 -403 -397 0
-461 -404 -398 0
-462 -405 -399 0
-463 -406 -397 0
-464 -407 -398 0
-465 -408 -399 0
-466 -409 -397 0
-467 -410 -398 0
-468 -411 -399 0
-469 -412 -397 0
-470 -413 -398 0
-471 -414 -399 0
-472 -415 -397 0
-473 -416 -398 0
-474 -417 -399 0
-475 -418 -397 0
-476 -419 -398 0
-477 -420 -399 0
-478 -421 -397 0
-479 -422 -398 0
-480 -423 -399 0
-481 -424 -397 0
-482 -425 -398 0
-483 -426 -399 0
-484 -427 -397 0
-485 -428 -398 0
-486 -429 -399 0
-487 -430 -397 0
-488 -431 -398 0
-489 -432 -399 0
-490 -433 -397 0
-491 -434 -398 0
-492 -435 -399 0
-493 -436 -397 0
-494 -437 -398 0
-495 -438 -399 0
-496 -439 -397 0
-497 -440 -398 0
-498 -441 -399 0
-499 -442 -397 0
-500 -443 -398 0
-501 -444 -399 0
-502 -445 -397 0
-503 -446 -398 0
-504 -447 -399 0
-505 -448 -397 0
-506 -449 -398 0
-507 -450 -399 0
-508 -451 -397 0
-509 -452 -398 0
-510 -453 -399 0
-511 -454 -397 0
-512 -455 -398 0
-513 -456 -399 0
-514 -457 -397 0
-515 -458 -398 0
-516 -459 -399 0
-517 -460 -397 0
-518 -461 -398 0
-519 -462 -399 0
-520 -463 -397 0
-521 -464 -398 0
-522 -465 -399 0
-523 -466 -397 0
-524 -467 -398 0
-525 -468 -399 0
-526 -469 -397 0
-527 -470 -398 0
-528 -471 -399 0
-529 -472 -397 0
-530 -473 -398 0
-531 -474 -399 0
-532 -475 -397 0
-533 -476 -398 0
-534 -477 -399 0
-535 -478 -397 0
-536 -479 -398 0
-537 -480 -399 0
-538 -481 -397 0
-539 -482 -398 0
-540 -483 -399 0
-541 -484 -397 0
-542 -485 -398 0
-543 -486 -399 0
-544 -487 -397 0
-545 -488 -398 0
-546 -489 -399 0
-547 -490 -397 0
-548 -491 -398 0
-549 -492 -399 0
-550 -493 -397 0
-551 -494 -398 0
-552 -495 -399 0
-553 -496 -397 0
-554 -497 -398 0
-555 -498 -399 0
-556 -499 -397 0
-557 -500 -398 0
-558 -501 -399 0
-559 -502 -397 0
-560 -503 -398 0
-561 -504 -399 0
-562 -505 -397 0
-563 -506 -398 0
-564 -507 -399 0
-565 -508 -397 0
-566 -509 -398 0
-567 -510 -399 0
-568 -511 -397 0
-569 -512 -398 0
-570 -513 -399 0
-571 -514 -397 0
-572 -515 -398 0
-573 -516 -399 0
-574 -517 -397 0
-575 -518 -398 0
-576 -519 -399 0
-577 -520 -397 0
-578 -521 -398 0
-579 -522 -399 0
-580 -523 -397 0
-581 -524 -398 0
-582 -525 -399 0
-583 -526 -397 0
-584 -527 -398 0
-585 -528 -399 0
-586 -529 -397 0
-587 -530 -398 0
-588 -531 -399 0
-589 -532 -397 0
-590 -533 -398 0
-591 -534 -399 0
-592 -535 -397 0
-593 -536 -398 0
-594 -537 -399 0
-595 -538 -397 0
-596 -539 -398 0
-597 -540 -399 0
-598 -541 -397 0
-599 -542 -398 0
-600 -543 -399 0
-601 -544 -397 0
-602 -545 -398 0
-603 -546 -399 0
-604 -547 -397 0
-605 -548 -398 0
-606 -549 -399 0
-607 -550 -397 0
-608 -551 -398 0
-609 -552 -399 0
-610 -553 -397 0
-611 -554 -398 0
-612 -555 -399 0
-613 -556 -397 0
-614 -557 -398 0
-615 -558 -399 0
-616 -559 -397 0
-617 -560 -398 0
-618 -561 -399 0
-619 -562 -397 0
-620 -563 -398 0
-621 -564 -399 0
-622 -565 -397 0
-623 -566 -398 0
-624 -567 -399 0
-625 -568 -397 0
-626 -569 -398 0
-627 -570 -399 0
-628 -571 -397 0
-629 -572 -398 0
-630 -573 -399 0
-631 -574 -397 0
-632 -575 -398 0
-633 -576 -399 0
-634 -577 -397 0
-635 -578 -398 0
-636 -579 -399 0
-637 -580 -397 0
-638 -581 -398 0
-639 -582 -399 0
-640 -583 -397 0
-641 -584 -398 0
-642 -585 -399 0
-643 -586 -397 0
-644 -587 -398 0
-645 -588 -399 0
-646 -589 -397 0
-647 -590 -398 0
-648 -591 -399 0
-649 -592 -397 0
-650 -593 -398 0
-651 -594 -399 0
-652 -595 -397 0
-653 -596 -398 0
-654 -597 -399 0
-655 -598 -397 0
-656 -599 -398 0
-657 -600 -399 0
-658 -601 -397 0
-659 -602 -398 0
-660 -603 -399 0
-661 -604 -397 0
-662 -605 -398 0
-663 -606 -399 0
-664 -607 -397 0
-665 -608 -398 0
-666 -609 -399 0
-667 -610 -397 0
-668 -611 -398 0
-669 -612 -399 0
-670 -613 -397 0
-671 -614 -398 0
-672 -615 -399 0
-673 -616 -397 0
-674 -617 -398 0
-675 -618 -399 0
-676 -619 -397 0
-677 -620 -398 0
-678 -621 -399 0
-679 -622 -397 0
-680 -623 -398 0
-681 -624 -399 0
-682 -625 -397 0
-683 -626 -398 0
-684 -627 -399 0
-685 -628 -397 0
-686 -629 -398 0
-687 -630 -399 0
-688 -631 -397 0
-689 -632 -398 0
-690 -633 -399 0
-691 -634 -397 0
-692 -635 -398 0
-693 -636 -399 0
-694 -637 -397 0
-695 -638 -398 0
-696 -639 -399 0
-697 -640 -397 0
-698 -641 -398 0
-699 -642 -399 0
-700 -643 -397 0
-701 -644 -398 0
-702 -645 -399 0
-703 -646 -397 0
-704 -647 -398 0
-705 -648 -399 0
-706 -649 -397 0
-707 -650 -398 0
-708 -651 -399 0
-709 -652 -397 0
-710 -653 -398 0
-711 -654 -399 0
-712 -655 -397 0
-713 -656 -398 0
-714 -657 -399 0
-715 -658 -397 0
-716 -659 -398 0
-717 -660 -399 0
-718 -661 -397 0
-719 -662 -398 0
-720 -663 -399 0
-721 -664 -397 0
-722 -665 -398 0
-723 -666 -399 0
-724 -667 -397 0
-725 -668 -398 0
-726 -669 -399 0
-727 -670 -397 0
-728 -671 -398 0
-729 -672 -399 0
-730 -673 -397 0
-731 -674 -398 0
-732 -675 -399 0
-733 -676 -397 0
-734 -677 -398 0
-735 -678 -399 0
-736 -679 -397 0
-737 -680 -398 0
-738 -681 -399 0
-739 -682 -397 0
-740 -683 -398 0
-741 -684 -399 0
-742 -685 -397 0
-743 -686 -398 0
-744 -687 -399 0
-745 -688 -397 0
-746 -689 -398 0
-747 -690 -399 0
-748 -691 -397 0
-749 -692 -398 0
-750 -693 -399 0
-751 -694 -397 0
-752 -695 -398 0
-753 -696 -399 0
-754 -697 -397 0
-755 -698 -398 0
-756 -699 -399 0
-757 -700 -397 0
-758 -701 -398 0
-759 -702 -399 0
-760 -703 -397 0
-761 -704 -398 0
-762 -705 -399 0
-763 -706 -397 0
-764 -707 -398 0
-765 -708 -399 0
-766 -709 -397 0
-767 -710 -398 0
-768 -711 -399 0
-769 -712 -397 0
-770 -713 -398 0
-771 -714 -399 0
-772 -715 -397 0
-773 -716 -398 0
-774 -717 -399 0
-775 -718 -397 0
-776 -719 -398 0
-777 -720 -399 0
-778 -721 -397 0
-779 -722 -398 0
-780 -723 -399 0
-781 -724 -397 0
-782 -725 -398 0
-783 -726 -399 0
-784 -727 -397 0
-785 -728 -398 0
-786 -729 -399 0
-787 -730 -397 0
-788 -731 -398 0
-789 -732 -399 0
-790 -733 -397 0
-791 -734 -398 0
-792 -735 -399 0
-793 -736 -397 0
-794 -737 -398 0
-795 -738 -399 0
-796 -739 -397 0
-797 -740 -398 0
-798 -741 -399 0
-799 -742 -397 0
-800 -743 -398 0
-801 -744 -399 0
-802 -745 -397 0
-803 -746 -398 0
-804 -747 -399 0
-805 -748 -397 0
-806 -749 -398 0
-807 -750 -399 0
-808 -751 -397 0
-809 -752 -398 0
-810 -753 -399 0
-811 -754 -397 0
-812 -755 -398 0
-813 -756 -399 0
-814 -757 -397 0
-815 -758 -398 0
-816 -759 -399 0
-817 -760 -397 0
-818 -761 -398 0
-819 -762 -399 0
-820 -763 -397 0
-821 -764 -398 0
-822 -765 -399 0
-823 -766 -397 0
-824 -767 -398 0
-825 -768 -399 0
-826 -769 -397 0
-827 -770 -398 0
-828 -771 -399 0
-829 -772 -397 0
-830 -773 -398 0
-831 -774 -399 0
-832 -775 -397 0
-833 -776 -398 0
-834 -777 -399 0
-835 -778 -397 0
-836 -779 -398 0
-837 -780 -399 0
-838 -781 -397 0
-839 -782 -398 0
-840 -783 -399 0
-841 -784 -397 0
-842 -785 -398 0
-843 -786 -399 0
-844 -787 -397 0
-845 -788 -398 0
-846 -789 -399 0
-847 -790 -397 0
-848 -791 -398 0
-849 -792 -399 0
-850 -793 -397 0
-851 -794 -398 0
-852 -795 -399 0
-853 -796 -397 0
-854 -797 -398 0
-855 -798 -399 0
-856 -799 -397 0
-857 -800 -398 0
-858 -801 -399 0
-859 -802 -397 0
-860 -803 -398 0
-861 -804 -399 0
-862 -805 -397 0
-863 -806 -398 0
-864 -807 -399 0
-865 -808 -397 0
-866 -809 -398 0
-867 -810 -399 0
-868 -811 -397 0
-869 -812 -398 0
-870 -813 -399 0
-871 -814 -397 0
-872 -815 -398 0
-873 -816 -399 0
-874 -817 -397 0
-875 -818 -398 0
-876 -819 -399 0
-877 -820 -397 0
-878 -821 -398 0
-879 -822 -399 0
-880 -823 -397 0
-881 -824 -398 0
-882 -825 -399 0
-883 -826 -397 0
-884 -827 -398 0
-885 -828 -399 0
-886 -829 -397 0
-887 -830 -398 0
-888 -831 -399 0
-889 -832 -397 0
-890 -833 -398 0
-891 -834 -399 0
-892 -835 -397 0
-893 -836 -398 0
-894 -837 -399 0
-895 -838 -397 0
-896 -839 -398 0
-897 -840 -399 0
-898 -841 -397 0
-899 -842 -398 0
-900 -843 -399 0
-901 -844 -397 0
-902 -845 -398 0
-903 -846 -399 0
-904 -847 -397 0
-905 -848 -398 0
-906 -849 -399 0
-907 -850 -397 0
-908 -851 -398 0
-909 -852 -399 0
-910 -853 -397 0
-911 -854 -398 0
-912 -855 -399 0
-913 -856 -397 0
-914 -857 -398 0
-915 -858 -399 0
-916 -859 -397 0
-917 -860 -398 0
-918 -861 -399 0
-919 -862 -397 0
-920 -863 -398 0
-921 -864 -399 0
-922 -865 -397 0
-923 -866 -398 0
-924 -867 -399 0
-925 -868 -397 0
-926 -869 -398 0
-927 -870 -399 0
-928 -871 -397 0
-929 -872 -398 0
-930 -873 -399 0
-931 -874 -397 0
-932 -875 -398 0
-933 -876 -399 0
-934 -877 -397 0
-935 -878 -398 0
-936 -879 -399 0
-937 -880 -397 0
-938 -881 -398 0
-939 -882 -399 0
-940 -883 -397 0
-941 -884 -398 0
-942 -885 -399 0
-943 -886 -397 0
-944 -887 -398 0
-945 -888 -399 0
-946 -889 -397 0
-947 -890 -398 0
-948 -891 -399 0
-949 -892 -397 0
-950 -893 -398 0
-951 -894 -399 0
-952 -895 -397 0
-953 -896 -398 0
-954 -897 -399 0
-955 -898 -397 0
-956 -899 -398 0
-957 -900 -399 0
-958 -901 -397 0
-959 -902 -398 0
-960 -903 -399 0
-961 -904 -397 0
-962 -905 -398 0
-963 -906 -399 0
-964 -907 -397 0
-965 -908 -398 0
-966 -909 -399 0
-967 -910 -397 0
-968 -911 -398 0
-969 -912 -399 0
-970 -913 -397 0
-971 -914 -398 0
-972 -915 -399 0
-973 -916 -397 0
-974 -917 -398 0
-975 -918 -399 0
-976 -919 -397 0
-977 -920 -398 0
-978 -921 -399 0
-979 -922 -397 0
-980 -923 -398 0
-981 -924 -399 0
-982 -925 -397 0
-983 -926 -398 0
-984 -927 -399 0
-985 -928 -397 0
-986 -929 -398 0
-987 -930 -399 0
-988 -931 -397 0
-989 -932 -398 0
-990 -933 -399 0
-991 -934 -397 0
-992 -935 -398 0
-993 -936 -399 0
-994 -937 -397 0
-995 -938 -398 0
-996 -939 -399 0
-997 -940 -397 0
-998 -941 -398 0
-999 -942 -399 0
-1000 -943 -397 0
-1001 -944 -398 0
-1002 -945 -399 0
-1003 -946 -397 0
-1004 -947 -398 0
-1005 -948 -399 0
-1006 -949 -397 0
-1007 -950 -398 0
-1008 -951 -399 0
-1009 -952 -397 0
-1010 -953 -398 0
-1011 -954 -399 0
-1012 -955 -397 0
-1013 -956 -398 0
-1014 -957 -399 0
-1015 -958 -397 0
-1016 -959 -398 0
-1017 -960 -399 0
-1018 -961 -397 0
-1019 -962 -398 0
-1020 -963 -399 0
-1021 -964 -397 0
-1022 -965 -398 0
-1023 -966 -399 0
-1024 -967 -397 0
-1025 -968 -398 0
-1026 -969 -399 0
-1027 -970 -397 0
-1028 -971 -398 0
-1029 -972 -399 0
-418 -61 -1 0
-419 -62 -2 0
-420 -63 -3 0
-418 -64 -4 0
-419 -65 -5 0
-420 -66 -6 0
-418 -67 -7 0
-419 -68 -8 0
-420 -69 -9 0
-418 -70 -10 0
-419 -71 -11 0
-420 -72 -12 0
-418 -73 -13 0
-419 -74 -14 0
-420 -75 -15 0
-418 -76 -16 0
-419 -77 -17 0
-420 -78 -18 0
-418 -79 -19 0
-419 -80 -20 0
-420 -81 -21 0
-418 -82 -22 0
-419 -83 -23 0
-420 -84 -24 0
-418 -85 -25 0
-419 -86 -26 0
-420 -87 -27 0
-418 -88 -28 0
-419 -89 -29 0
-420 -90 -30 0
-418 -91 -31 0
-419 -92 -32 0
-420 -93 -33 0
-418 -94 -34 0
-419 -95 -35 0
-420 -96 -36 0
-418 -97 -37 0
-419 -98 -38 0
-420 -99 -39 0
-418 -100 -40 0
-419 -101 -41 0
-420 -102 -42 0
-418 -103 -43 0
-419 -104 -44 0
-420 -105 -45 0
-418 -106 -46 0
-419 -107 -47 0
-420 -108 -48 0
-418 -109 -49 0
-419 -110 -50 0
-420 -111 -51 0
-418 -112 -52 0
-419 -113 -53 0
-420 -114 -54 0
-418 -115 -55 0
-419 -116 -56 0
-420 -117 -57 0
-418 -118 -58 0
-419 -119 -59 0
-420 -120 -60 0
-418 -121 -61 0
-419 -122 -62 0
-420 -123 -63 0
-418 -124 -64 0
-419 -125 -65 0
-420 -126 -66 0
-418 -127 -67 0
-419 -128 -68 0
-420 -129 -69 0
-418 -130 -70 0
-419 -131 -71 0
-420 -132 -72 0
-418 -133 -73 0
-419 -134 -74 0
-420 -135 -75 0
-418 -136 -76 0
-419 -137 -77 0
-420 -138 -78 0
-418 -139 -79 0
-419 -140 -80 0
-420 -141 -81 0
-418 -142 -82 0
-419 -143 -83 0
-420 -144 -84 0
-418 -145 -85 0
-419 -146 -86 0
-420 -147 -87 0
-418 -148 -88 0
-419 -149 -89 0
-420 -150 -90 0
-418 -151 -91 0
-419 -152 -92 0
-420 -153 -93 0
-418 -154 -94 0
-419 -155 -95 0
-420 -156 -96 0
-418 -157 -97 0
-419 -158 -98 0
-420 -159 -99 0
-418 -160 -100 0
-419 -161 -101 0
-420 -162 -102 0
-418 -163 -103 0
-419 -164 -104 0
-420 -165 -105 0
-418 -166 -106 0
-419 -167 -107 0
-420 -168 -108 0
-418 -169 -109 0
-419 -170 -110 0
-420 -171 -111 0
-418 -172 -112 0
-419 -173 -113 0
-420 -174 -114 0
-418 -175 -115 0
-419 -176 -116 0
-420 -177 -117 0
-418 -178 -118 0
-419 -179 -119 0
-420 -180 -120 0
-418 -181 -121 0
-419 -182 -122 0
-420 -183 -123 0
-418 -184 -124 0
-419 -185 -125 0
-420 -186 -126 0
-418 -187 -127 0
-419 -188 -128 0
-420 -189 -129 0
-418 -190 -130 0
-419 -191 -131 0
-420 -192 -132 0
-418 -193 -133 0
-419 -194 -134 0
-420 -195 -135 0
-418 -196 -136 0
-419 -197 -137 0
-420 -198 -138 0
-418 -199 -139 0
-419 -200 -140 0
-420 -201 -141 0
-418 -202 -142 0
-419 -203 -143 0
-420 -204 -144 0
-418 -205 -145 0
-419 -206 -146 0
-420 -207 -147 0
-418 -208 -148 0
-419 -209 -149 0
-420 -210 -150 0
-418 -211 -151 0
-419 -212 -152 0
-420 -213 -153 0
-418 -214 -154 0
-419 -215 -155 0
-420 -216 -156 0
-418 -217 -157 0
-419 -218 -158 0
-420 -219 -159 0
-418 -220 -160 0
-419 -221 -161 0
-420 -222 -162 0
-418 -223 -163 0
-419 -224 -164 0
-420 -225 -165 0
-418 -226 -166 0
-419 -227 -167 0
-420 -228 -168 0
-418 -229 -169 0
-419 -230 -170 0
-420 -231 -171 0
-418 -232 -172 0
-419 -233 -173 0
-420 -234 -174 0
-418 -235 -175 0
-419 -236 -176 0
-420 -237 -177 0
-418 -238 -178 0
-419 -239 -179 0
-420 -240 -180 0
-418 -241 -181 0
-419 -242 -182 0
-420 -243 -183 0
-418 -244 -184 0
-419 -245 -185 0
-420 -246 -186 0
-418 -247 -187 0
-419 -248 -188 0
-420 -249 -189 0
-418 -250 -190 0
-419 -251 -191 0
-420 -252 -192 0
-418 -253 -193 0
-419 -254 -194 0
-420 -255 -195 0
-418 -256 -196 0
-419 -257 -197 0
-420 -258 -198 0
-418 -259 -199 0
-419 -260 -200 0
-420 -261 -201 0
-418 -262 -202 0
-419 -263 -203 0
-420 -264 -204 0
-418 -265 -205 0
-419 -266 -206 0
-420 -267 -207 0
-418 -268 -208 0
-419 -269 -209 0
-420 -270 -210 0
-418 -271 -211 0
-419 -272 -212 0
-420 -273 -213 0
-418 -274 -214 0
-419 -275 -215 0
-420 -276 -216 0
-418 -277 -217 0
-419 -278 -218 0
-420 -279 -219 0
-418 -280 -220 0
-419 -281 -221 0
-420 -282 -222 0
-418 -283 -223 0
-419 -284 -224 0
-420 -285 -225 0
-418 -286 -226 0
-419 -287 -227 0
-420 -288 -228 0
-418 -289 -229 0
-419 -290 -230 0
-420 -291 -231 0
-418 -292 -232 0
-419 -293 -233 0
-420 -294 -234 0
-418 -295 -235 0
-419 -296 -236 0
-420 -297 -237 0
-418 -298 -238 0
-419 -299 -239 0
-420 -300 -240 0
-418 -301 -241 0
-419 -302 -242 0
-420 -303 -243 0
-418 -304 -244 0
-419 -305 -245 0
-420 -306 -246 0
-418 -307 -247 0
-419 -308 -248 0
-420 -309 -249 0
-418 -310 -250 0
-419 -311 -251 0
-420 -312 -252 0
-418 -313 -253 0
-419 -314 -254 0
-420 -315 -255 0
-418 -316 -256 0
-419 -317 -257 0
-420 -318 -258 0
-418 -319 -259 0
-419 -320 -260 0
-420 -321 -261 0
-418 -322 -262 0
-419 -323 -263 0
-420 -324 -264 0
-418 -325 -265 0
-419 -326 -266 0
-420 -327 -267 0
-418 -328 -268 0
-419 -329 -269 0
-420 -330 -270 0
-418 -331 -271 0
-419 -332 -272 0
-420 -333 -273 0
-418 -334 -274 0
-419 -335 -275 0
-420 -336 -276 0
-418 -337 -277 0
-419 -338 -278 0
-420 -339 -279 0
-418 -340 -280 0
-419 -341 -281 0
-420 -342 -282 0
-418 -343 -283 0
-419 -344 -284 0
-420 -345 -285 0
-418 -346 -286 0
-419 -347 -287 0
-420 -348 -288 0
-418 -349 -289 0
-419 -350 -290 0
-420 -351 -291 0
-418 -352 -292 0
-419 -353 -293 0
-420 -354 -294 0
-418 -355 -295 0
-419 -356 -296 0
-420 -357 -297 0
-418 -358 -298 0
-419 -359 -299 0
-420 -360 -300 0
-418 -361 -301 0
-419 -362 -302 0
-420 -363 -303 0
-418 -364 -304 0
-419 -365 -305 0
-420 -366 -306 0
-418 -367 -307 0
-419 -368 -308 0
-420 -369 -309 0
-418 -370 -310 0
-419 -371 -311 0
-420 -372 -312 0
-418 -373 -313 0
-419 -374 -314 0
-420 -375 -315 0
-418 -376 -316 0
-419 -377 -317 0
-420 -378 -318 0
-418 -379 -319 0
-419 -380 -320 0
-420 -381 -321 0
-418 -382 -322 0
-419 -383 -323 0
-420 -384 -324 0
-418 -385 -325 0
-419 -386 -326 0
-420 -387 -327 0
-418 -388 -328 0
-419 -389 -329 0
-420 -390 -330 0
-418 -391 -331 0
-419 -392 -332 0
-420 -393 -333 0
-418 -394 -334 0
-419 -395 -335 0
-420 -396 -336 0
-418 -397 -337 0
-419 -398 -338 0
-420 -399 -339 0
-418 -400 -340 0
-419 -401 -341 0
-420 -402 -342 0
-418 -403 -343 0
-419 -404 -344 0
-420 -405 -345 0
-418 -406 -346 0
-419 -407 -347 0
-420 -408 -348 0
-418 -409 -349 0
-419 -410 -350 0
-420 -411 -351 0
-418 -412 -352 0
-419 -413 -353 0
-420 -414 -354 0
-418 -415 -355 0
-419 -416 -356 0
-420 -417 -357 0
-418 -358 0
-419 -359 0
-420 -360 0
-421 -418 -361 0
-422 -419 -362 0
-423 -420 -363 0
-424 -418 -364 0
-425 -419 -365 0
-426 -420 -366 0
-427 -418 -367 0
-428 -419 -368 0
-429 -420 -369 0
-430 -418 -370 0
-431 -419 -371 0
-432 -420 -372 0
-433 -418 -373 0
-434 -419 -374 0
-435 -420 -375 0
-436 -418 -376 0
-437 -419 -377 0
-438 -420 -378 0
-439 -418 -379 0
-440 -419 -380 0
-441 -420 -381 0
-442 -418 -382 0
-443 -419 -383 0
-444 -420 -384 0
-445 -418 -385 0
-446 -419 -386 0
-447 -420 -387 0
-448 -418 -388 0
-449 -419 -389 0
-450 -420 -390 0
-451 -418 -391 0
-452 -419 -392 0
-453 -420 -393 0
-454 -418 -394 0
-455 -419 -395 0
-456 -420 -396 0
-457 -418 -397 0
-458 -419 -398 0
-459 -420 -399 0
-460 -418 -400 0
-461 -419 -401 0
-462 -420 -402 0
-463 -418 -403 0
-464 -419 -404 0
-465 -420 -405 0
-466 -418 -406 0
-467 -419 -407 0
-468 -420 -408 0
-469 -418 -409 0
-470 -419 -410 0
-471 -420 -411 0
-472 -418 -412 0
-473 -419 -413 0
-474 -420 -414 0
-475 -418 -415 0
-476 -419 -416 0
-477 -420 -417 0
-478 -418 0
-479 -419 0
-480 -420 0
-481 -421 -418 0
-482 -422 -419 0
-483 -423 -420 0
-484 -424 -418 0
-485 -425 -419 0
-486 -426 -420 0
-487 -427 -418 0
-488 -428 -419 0
-489 -429 -420 0
-490 -430 -418 0
-491 -431 -419 0
-492 -432 -420 0
-493 -433 -418 0
-494 -434 -419 0
-495 -435 -420 0
-496 -436 -418 0
-497 -437 -419 0
-498 -438 -420 0
-499 -439 -418 0
-500 -440 -419 0
-501 -441 -420 0
-502 -442 -418 0
-503 -443 -419 0
-504 -444 -420 0
-505 -445 -418 0
-506 -446 -419 0
-507 -447 -420 0
-508 -448 -418 0
-509 -449 -419 0
-510 -450 -420 0
-511 -451 -418 0
-512 -452 -419 0
-513 -453 -420 0
-514 -454 -418 0
-515 -455 -419 0
-516 -456 -420 0
-517 -457 -418 0
-518 -458 -419 0
-519 -459 -420 0
-520 -460 -418 0
-521 -461 -419 0
-522 -462 -420 0
-523 -463 -418 0
-524 -464 -419 0
-525 -465 -420 0
-526 -466 -418 0
-527 -467 -419 0
-528 -468 -420 0
-529 -469 -418 0
-530 -470 -419 0
-531 -471 -420 0
-532 -472 -418 0
-533 -473 -419 0
-534 -474 -420 0
-535 -475 -418 0
-536 -476 -419 0
-537 -477 -420 0
-538 -478 -418 0
-539 -479 -419 0
-540 -480 -420 0
-541 -481 -418 0
-542 -482 -419 0
-543 -483 -420 0
-544 -484 -418 0
-545 -485 -419 0
-546 -486 -420 0
-547 -487 -418 0
-548 -488 -419 0
-549 -489 -420 0
-550 -490 -418 0
-551 -491 -419 0
-552 -492 -420 0
-553 -493 -418 0
-554 -494 -419 0
-555 -495 -420 0
-556 -496 -418 0
-557 -497 -419 0
-558 -498 -420 0
-559 -499 -418 0
-560 -500 -419 0
-561 -501 -420 0
-562 -502 -418 0
-563 -503 -419 0
-564 -504 -420 0
-565 -505 -418 0
-566 -506 -419 0
-567 -507 -420 0
-568 -508 -418 0
-569 -509 -419 0
-570 -510 -420 0
-571 -511 -418 0
-572 -512 -419 0
-573 -513 -420 0
-574 -514 -418 0
-575 -515 -419 0
-576 -516 -420 0
-577 -517 -418 0
-578 -518 -419 0
-579 -519 -420 0
-580 -520 -418 0
-581 -521 -419 0
-582 -522 -420 0
-583 -523 -418 0
-584 -524 -419 0
-585 -525 -420 0
-586 -526 -418 0
-587 -527 -419 0
-588 -528 -420 0
-589 -529 -418 0
-590 -530 -419 0
-591 -531 -420 0
-592 -532 -418 0
-593 -533 -419 0
-594 -534 -420 0
-595 -535 -418 0
-596 -536 -419 0
-597 -537 -420 0
-598 -538 -418 0
-599 -539 -419 0
-600 -540 -420 0
-601 -541 -418 0
-602 -542 -419 0
-603 -543 -420 0
-604 -544 -418 0
-605 -545 -419 0
-606 -546 -420 0
-607 -547 -418 0
-608 -548 -419 0
-609 -549 -420 0
-610 -550 -418 0
-611 -551 -419 0
-612 -552 -420 0
-613 -553 -418 0
-614 -554 -419 0
-615 -555 -420 0
-616 -556 -418 0
-617 -557 -419 0
-618 -558 -420 0
-619 -559 -418 0
-620 -560 -419 0
-621 -561 -420 0
-622 -562 -418 0
-623 -563 -419 0
-624 -564 -420 0
-625 -565 -418 0
-626 -566 -419 0
-627 -567 -420 0
-628 -568 -418 0
-629 -569 -419 0
-630 -570 -420 0
-631 -571 -418 0
-632 -572 -419 0
-633 -573 -420 0
-634 -574 -418 0
-635 -575 -419 0
-636 -576 -420 0
-637 -577 -418 0
-638 -578 -419 0
-639 -579 -420 0
-640 -580 -418 0
-641 -581 -419 0
-642 -582 -420 0
-643 -583 -418 0
-644 -584 -419 0
-645 -585 -420 0
-646 -586 -418 0
-647 -587 -419 0
-648 -588 -420 0
-649 -589 -418 0
-650 -590 -419 0
-651 -591 -420 0
-652 -592 -418 0
-653 -593 -419 0
-654 -594 -420 0
-655 -595 -418 0
-656 -596 -419 0
-657 -597 -420 0
-658 -598 -418 0
-659 -599 -419 0
-660 -600 -420 0
-661 -601 -418 0
-662 -602 -419 0
-663 -603 -420 0
-664 -604 -418 0
-665 -605 -419 0
-666 -606 -420 0
-667 -607 -418 0
-668 -608 -419 0
-669 -609 -420 0
-670 -610 -418 0
-671 -611 -419 0
-672 -612 -420 0
-673 -613 -418 0
-674 -614 -419 0
-675 -615 -420 0
-676 -616 -418 0
-677 -617 -419 0
-678 -618 -420 0
-679 -619 -418 0
-680 -620 -419 0
-681 -621 -420 0
-682 -622 -418 0
-683 -623 -419 0
-684 -624 -420 0
-685 -625 -418 0
-686 -626 -419 0
-687 -627 -420 0
-688 -628 -418 0
-689 -629 -419 0
-690 -630 -420 0
-691 -631 -418 0
-692 -632 -419 0
-693 -633 -420 0
-694 -634 -418 0
-695 -635 -419 0
-696 -636 -420 0
-697 -637 -418 0
-698 -638 -419 0
-699 -639 -420 0
-700 -640 -418 0
-701 -641 -419 0
-702 -642 -420 0
-703 -643 -418 0
-704 -644 -419 0
-705 -645 -420 0
-706 -646 -418 0
-707 -647 -419 0
-708 -648 -420 0
-709 -649 -418 0
-710 -650 -419 0
-711 -651 -420 0
-712 -652 -418 0
-713 -653 -419 0
-714 -654 -420 0
-715 -655 -418 0
-716 -656 -419 0
-717 -657 -420 0
-718 -658 -418 0
-719 -659 -419 0
-720 -660 -420 0
-721 -661 -418 0
-722 -662 -419 0
-723 -663 -420 0
-724 -664 -418 0
-725 -665 -419 0
-726 -666 -420 0
-727 -667 -418 0
-728 -668 -419 0
-729 -669 -420 0
-730 -670 -418 0
-731 -671 -419 0
-732 -672 -420 0
-733 -673 -418 0
-734 -674 -419 0
-735 -675 -420 0
-736 -676 -418 0
-737 -677 -419 0
-738 -678 -420 0
-739 -679 -418 0
-740 -680 -419 0
-741 -681 -420 0
-742 -682 -418 0
-743 -683 -419 0
-744 -684 -420 0
-745 -685 -418 0
-746 -686 -419 0
-747 -687 -420 0
-748 -688 -418 0
-749 -689 -419 0
-750 -690 -420 0
-751 -691 -418 0
-752 -692 -419 0
-753 -693 -420 0
-754 -694 -418 0
-755 -695 -419 0
-756 -696 -420 0
-757 -697 -418 0
-758 -698 -419 0
-759 -699 -420 0
-760 -700 -418 0
-761 -701 -419 0
-762 -702 -420 0
-763 -703 -418 0
-764 -704 -419 0
-765 -705 -420 0
-766 -706 -418 0
-767 -707 -419 0
-768 -708 -420 0
-769 -709 -418 0
-770 -710 -419 0
-771 -711 -420 0
-772 -712 -418 0
-773 -713 -419 0
-774 -714 -420 0
-775 -715 -418 0
-776 -716 -419 0
-777 -717 -420 0
-778 -718 -418 0
-779 -719 -419 0
-780 -720 -420 0
-781 -721 -418 0
-782 -722 -419 0
-783 -723 -420 0
-784 -724 -418 0
-785 -725 -419 0
-786 -726 -420 0
-787 -727 -418 0
-788 -728 -419 0
-789 -729 -420 0
-790 -730 -418 0
-791 -731 -419 0
-792 -732 -420 0
-793 -733 -418 0
-794 -734 -419 0
-795 -735 -420 0
-796 -736 -418 0
-797 -737 -419 0
-798 -738 -420 0
-799 -739 -418 0
-800 -740 -419 0
-801 -741 -420 0
-802 -742 -418 0
-803 -743 -419 0
-804 -744 -420 0
-805 -745 -418 0
-806 -746 -419 0
-807 -747 -420 0
-808 -748 -418 0
-809 -749 -419 0
-810 -750 -420 0
-811 -751 -418 0
-812 -752 -419 0
-813 -753 -420 0
-814 -754 -418 0
-815 -755 -419 0
-816 -756 -420 0
-817 -757 -418 0
-818 -758 -419 0
-819 -759 -420 0
-820 -760 -418 0
-821 -761 -419 0
-822 -762 -420 0
-823 -763 -418 0
-824 -764 -419 0
-825 -765 -420 0
-826 -766 -418 0
-827 -767 -419 0
-828 -768 -420 0
-829 -769 -418 0
-830 -770 -419 0
-831 -771 -420 0
-832 -772 -418 0
-833 -773 -419 0
-834 -774 -420 0
-835 -775 -418 0
-836 -776 -419 0
-837 -777 -420 0
-838 -778 -418 0
-839 -779 -419 0
-840 -780 -420 0
-841 -781 -418 0
-842 -782 -419 0
-843 -783 -420 0
-844 -784 -418 0
-845 -785 -419 0
-846 -786 -420 0
-847 -787 -418 0
-848 -788 -419 0
-849 -789 -420 0
-850 -790 -418 0
-851 -791 -419 0
-852 -792 -420 0
-853 -793 -418 0
-854 -794 -419 0
-855 -795 -420 0
-856 -796 -418 0
-857 -797 -419 0
-858 -798 -420 0
-859 -799 -418 0
-860 -800 -419 0
-861 -801 -420 0
-862 -802 -418 0
-863 -803 -419 0
-864 -804 -420 0
-865 -805 -418 0
-866 -806 -419 0
-867 -807 -420 0
-868 -808 -418 0
-869 -809 -419 0
-870 -810 -420 0
-871 -811 -418 0
-872 -812 -419 0
-873 -813 -420 0
-874 -814 -418 0
-875 -815 -419 0
-876 -816 -420 0
-877 -817 -418 0
-878 -818 -419 0
-879 -819 -420 0
-880 -820 -418 0
-881 -821 -419 0
-882 -822 -420 0
-883 -823 -418 0
-884 -824 -419 0
-885 -825 -420 0
-886 -826 -418 0
-887 -827 -419 0
-888 -828 -420 0
-889 -829 -418 0
-890 -830 -419 0
-891 -831 -420 0
-892 -832 -418 0
-893 -833 -419 0
-894 -834 -420 0
-895 -835 -418 0
-896 -836 -419 0
-897 -837 -420 0
-898 -838 -418 0
-899 -839 -419 0
-900 -840 -420 0
-901 -841 -418 0
-902 -842 -419 0
-903 -843 -420 0
-904 -844 -418 0
-905 -845 -419 0
-906 -846 -420 0
-907 -847 -418 0
-908 -848 -419 0
-909 -849 -420 0
-910 -850 -418 0
-911 -851 -419 0
-912 -852 -420 0
-913 -853 -418 0
-914 -854 -419 0
-915 -855 -420 0
-916 -856 -418 0
-917 -857 -419 0
-918 -858 -420 0
-919 -859 -418 0
-920 -860 -419 0
-921 -861 -420 0
-922 -862 -418 0
-923 -863 -419 0
-924 -864 -420 0
-925 -865 -418 0
-926 -866 -419 0
-927 -867 -420 0
-928 -868 -418 0
-929 -869 -419 0
-930 -870 -420 0
-931 -871 -418 0
-932 -872 -419 0
-933 -873 -420 0
-934 -874 -418 0
-935 -875 -419 0
-936 -876 -420 0
-937 -877 -418 0
-938 -878 -419 0
-939 -879 -420 0
-940 -880 -418 0
-941 -881 -419 0
-942 -882 -420 0
-943 -883 -418 0
-944 -884 -419 0
-945 -885 -420 0
-946 -886 -418 0
-947 -887 -419 0
-948 -888 -420 0
-949 -889 -418 0
-950 -890 -419 0
-951 -891 -420 0
-952 -892 -418 0
-953 -893 -419 0
-954 -894 -420 0
-955 -895 -418 0
-956 -896 -419 0
-957 -897 -420 0
-958 -898 -418 0
-959 -899 -419 0
-960 -900 -420 0
-961 -901 -418 0
-962 -902 -419 0
-963 -903 -420 0
-964 -904 -418 0
-965 -905 -419 0
-966 -906 -420 0
-967 -907 -418 0
-968 -908 -419 0
-969 -909 -420 0
-970 -910 -418 0
-971 -911 -419 0
-972 -912 -420 0
-973 -913 -418 0
-974 -914 -419 0
-975 -915 -420 0
-976 -916 -418 0
-977 -917 -419 0
-978 -918 -420 0
-979 -919 -418 0
-980 -920 -419 0
-981 -921 -420 0
-982 -922 -418 0
-983 -923 -419 0
-984 -924 -420 0
-985 -925 -418 0
-986 -926 -419 0
-987 -927 -420 0
-988 -928 -418 0
-989 -929 -419 0
-990 -930 -420 0
-991 -931 -418 0
-992 -932 -419 0
-993 -933 -420 0
-994 -934 -418 0
-995 -935 -419 0
-996 -936 -420 0
-997 -937 -418 0
-998 -938 -419 0
-999 -939 -420 0
-1000 -940 -418 0
-1001 -941 -419 0
-1002 -942 -420 0
-1003 -943 -418 0
-1004 -944 -419 0
-1005 -945 -420 0
-1006 -946 -418 0
-1007 -947 -419 0
-1008 -948 -420 0
-1009 -949 -418 0
-1010 -950 -419 0
-1011 -951 -420 0
-1012 -952 -418 0
-1013 -953 -419 0
-1014 -954 -420 0
-1015 -955 -418 0
-1016 -956 -419 0
-1017 -957 -420 0
-1018 -958 -418 0
-1019 -959 -419 0
-1020 -960 -420 0
-1021 -961 -418 0
-1022 -962 -419 0
-1023 -963 -420 0
-1024 -964 -418 0
-1025 -965 -419 0
-1026 -966 -420 0
-1027 -967 -418 0
-1028 -968 -419 0
-1029 -969 -420 0
-439 -64 -1 0
-440 -65 -2 0
-441 -66 -3 0
-439 -67 -4 0
-440 -68 -5 0
-441 -69 -6 0
-439 -70 -7 0
-440 -71 -8 0
-441 -72 -9 0
-439 -73 -10 0
-440 -74 -11 0
-441 -75 -12 0
-439 -76 -13 0
-440 -77 -14 0
-441 -78 -15 0
-439 -79 -16 0
-440 -80 -17 0
-441 -81 -18 0
-439 -82 -19 0
-440 -83 -20 0
-441 -84 -21 0
-439 -85 -22 0
-440 -86 -23 0
-441 -87 -24 0
-439 -88 -25 0
-440 -89 -26 0
-441 -90 -27 0
-439 -91 -28 0
-440 -92 -29 0
-441 -93 -30 0
-439 -94 -31 0
-440 -95 -32 0
-441 -96 -33 0
-439 -97 -34 0
-440 -98 -35 0
-441 -99 -36 0
-439 -100 -37 0
-440 -101 -38 0
-441 -102 -39 0
-439 -103 -40 0
-440 -104 -41 0
-441 -105 -42 0
-439 -106 -43 0
-440 -107 -44 0
-441 -108 -45 0
-439 -109 -46 0
-440 -110 -47 0
-441 -111 -48 0
-439 -112 -49 0
-440 -113 -50 0
-441 -114 -51 0
-439 -115 -52 0
-440 -116 -53 0
-441 -117 -54 0
-439 -118 -55 0
-440 -119 -56 0
-441 -120 -57 0
-439 -121 -58 0
-440 -122 -59 0
-441 -123 -60 0
-439 -124 -61 0
-440 -125 -62 0
-441 -126 -63 0
-439 -127 -64 0
-440 -128 -65 0
-441 -129 -66 0
-439 -130 -67 0
-440 -131 -68 0
-441 -132 -69 0
-439 -133 -70 0
-440 -134 -71 0
-441 -135 -72 0
-439 -136 -73 0
-440 -137 -74 0
-441 -138 -75 0
-439 -139 -76 0
-440 -140 -77 0
-441 -141 -78 0
-439 -142 -79 0
-440 -143 -80 0
-441 -144 -81 0
-439 -145 -82 0
-440 -146 -83 0
-441 -147 -84 0
-439 -148 -85 0
-440 -149 -86 0
-441 -150 -87 0
-439 -151 -88 0
-440 -152 -89 0
-441 -153 -90 0
-439 -154 -91 0
-440 -155 -92 0
-441 -156 -93 0
-439 -157 -94 0
-440 -158 -95 0
-441 -159 -96 0
-439 -160 -97 0
-440 -161 -98 0
-441 -162 -99 0
-439 -163 -100 0
-440 -164 -101 0
-441 -165 -102 0
-439 -166 -103 0
-440 -167 -104 0
-441 -168 -105 0
-439 -169 -106 0
-440 -170 -107 0
-441 -171 -108 0
-439 -172 -109 0
-440 -173 -110 0
-441 -174 -111 0
-439 -175 -112 0
-440 -176 -113 0
-441 -177 -114 0
-439 -178 -115 0
-440 -179 -116 0
-441 -180 -117 0
-439 -181 -118 0
-440 -182 -119 0
-441 -183 -120 0
-439 -184 -121 0
-440 -185 -122 0
-441 -186 -123 0
-439 -187 -124 0
-440 -188 -125 0
-441 -189 -126 0
-439 -190 -127 0
-440 -191 -128 0
-441 -192 -129 0
-439 -193 -130 0
-440 -194 -131 0
-441 -195 -132 0
-439 -196 -133 0
-440 -197 -134 0
-441 -198 -135 0
-439 -199 -136 0
-440 -200 -137 0
-441 -201 -138 0
-439 -202 -139 0
-440 -203 -140 0
-441 -204 -141 0
-439 -205 -142 0
-440 -206 -143 0
-441 -207 -144 0
-439 -208 -145 0
-440 -209 -146 0
-441 -210 -147 0
-439 -211 -148 0
-440 -212 -149 0
-441 -213 -150 0
-439 -214 -151 0
-440 -215 -152 0
-441 -216 -153 0
-439 -217 -154 0
-440 -218 -155 0
-441 -219 -156 0
-439 -220 -157 0
-440 -221 -158 0
-441 -222 -159 0
-439 -223 -160 0
-440 -224 -161 0
-441 -225 -162 0
-439 -226 -163 0
-440 -227 -164 0
-441 -228 -165 0
-439 -229 -166 0
-440 -230 -167 0
-441 -231 -168 0
-439 -232 -169 0
-440 -233 -170 0
-441 -234 -171 0
-439 -235 -172 0
-440 -236 -173 0
-441 -237 -174 0
-439 -238 -175 0
-440 -239 -176 0
-441 -240 -177 0
-439 -241 -178 0
-440 -242 -179 0
-441 -243 -180 0
-439 -244 -181 0
-440 -245 -182 0
-441 -246 -183 0
-439 -247 -184 0
-440 -248 -185 0
-441 -249 -186 0
-439 -250 -187 0
-440 -251 -188 0
-441 -252 -189 0
-439 -253 -190 0
-440 -254 -191 0
-441 -255 -192 0
-439 -256 -193 0
-440 -257 -194 0
-441 -258 -195 0
-439 -259 -196 0
-440 -260 -197 0
-441 -261 -198 0
-439 -262 -199 0
-440 -263 -200 0
-441 -264 -201 0
-439 -265 -202 0
-440 -266 -203 0
-441 -267 -204 0
-439 -268 -205 0
-440 -269 -206 0
-441 -270 -207 0
-439 -271 -208 0
-440 -272 -209 0
-441 -273 -210 0
-439 -274 -211 0
-440 -275 -212 0
-441 -276 -213 0
-439 -277 -214 0
-440 -278 -215 0
-441 -279 -216 0
-439 -280 -217 0
-440 -281 -218 0
-441 -282 -219 0
-439 -283 -220 0
-440 -284 -221 0
-441 -285 -222 0
-439 -286 -223 0
-440 -287 -224 0
-441 -288 -225 0
-439 -289 -226 0
-440 -290 -227 0
-441 -291 -228 0
-439 -292 -229 0
-440 -293 -230 0
-441 -294 -231 0
-439 -295 -232 0
-440 -296 -233 0
-441 -297 -234 0
-439 -298 -235 0
-440 -299 -236 0
-441 -300 -237 0
-439 -301 -238 0
-440 -302 -239 0
-441 -303 -240 0
-439 -304 -241 0
-440 -305 -242 0
-441 -306 -243 0
-439 -307 -244 0
-440 -308 -245 0
-441 -309 -246 0
-439 -310 -247 0
-440 -311 -248 0
-441 -312 -249 0
-439 -313 -250 0
-440 -314 -251 0
-441 -315 -252 0
-439 -316 -253 0
-440 -317 -254 0
-441 -318 -255 0
-439 -319 -256 0
-440 -320 -257 0
-441 -321 -258 0
-439 -322 -259 0
-440 -323 -260 0
-441 -324 -261 0
-439 -325 -262 0
-440 -326 -263 0
-441 -327 -264 0
-439 -328 -265 0
-440 -329 -266 0
-441 -330 -267 0
-439 -331 -268 0
-440 -332 -269 0
-441 -333 -270 0
-439 -334 -271 0
-440 -335 -272 0
-441 -336 -273 0
-439 -337 -274 0
-440 -338 -275 0
-441 -339 -276 0
-439 -340 -277 0
-440 -341 -278 0
-441 -342 -279 0
-439 -343 -280 0
-440 -344 -281 0
-441 -345 -282 0
-439 -346 -283 0
-440 -347 -284 0
-441 -348 -285 0
-439 -349 -286 0
-440 -350 -287 0
-441 -351 -288 0
-439 -352 -289 0
-440 -353 -290 0
-441 -354 -291 0
-439 -355 -292 0
-440 -356 -293 0
-441 -357 -294 0
-439 -358 -295 0
-440 -359 -296 0
-441 -360 -297 0
-439 -361 -298 0
-440 -362 -299 0
-441 -363 -300 0
-439 -364 -301 0
-440 -365 -302 0
-441 -366 -303 0
-439 -367 -304 0
-440 -368 -305 0
-441 -369 -306 0
-439 -370 -307 0
-440 -371 -308 0
-441 -372 -309 0
-439 -373 -310 0
-440 -374 -311 0
-441 -375 -312 0
-439 -376 -313 0
-440 -377 -314 0
-441 -378 -315 0
-439 -379 -316 0
-440 -380 -317 0
-441 -381 -318 0
-439 -382 -319 0
-440 -383 -320 0
-441 -384 -321 0
-439 -385 -322 0
-440 -386 -323 0
-441 -387 -324 0
-439 -388 -325 0
-440 -389 -326 0
-441 -390 -327 0
-439 -391 -328 0
-440 -392 -329 0
-441 -393 -330 0
-439 -394 -331 0
-440 -395 -332 0
-441 -396 -333 0
-439 -397 -334 0
-440 -398 -335 0
-441 -399 -336 0
-439 -400 -337 0
-440 -401 -338 0
-441 -402 -339 0
-439 -403 -340 0
-440 -404 -341 0
-441 -405 -342 0
-439 -406 -343 0
-440 -407 -344 0
-441 -408 -345 0
-439 -409 -346 0
-440 -410 -347 0
-441 -411 -348 0
-439 -412 -349 0
-440 -413 -350 0
-441 -414 -351 0
-439 -415 -352 0
-440 -416 -353 0
-441 -417 -354 0
-439 -418 -355 0
-440 -419 -356 0
-441 -420 -357 0
-439 -421 -358 0
-440 -422 -359 0
-441 -423 -360 0
-439 -424 -361 0
-440 -425 -362 0
-441 -426 -363 0
-439 -427 -364 0
-440 -428 -365 0
-441 -429 -366 0
-439 -430 -367 0
-440 -431 -368 0
-441 -432 -369 0
-439 -433 -370 0
-440 -434 -371 0
-441 -435 -372 0
-439 -436 -373 0
-440 -437 -374 0
-441 -438 -375 0
-439 -376 0
-440 -377 0
-441 -378 0
-442 -439 -379 0
-443 -440 -380 0
-444 -441 -381 0
-445 -439 -382 0
-446 -440 -383 0
-447 -441 -384 0
-448 -439 -385 0
-449 -440 -386 0
-450 -441 -387 0
-451 -439 -388 0
-452 -440 -389 0
-453 -441 -390 0
-454 -439 -391 0
-455 -440 -392 0
-456 -441 -393 0
-457 -439 -394 0
-458 -440 -395 0
-459 -441 -396 0
-460 -439 -397 0
-461 -440 -398 0
-462 -441 -399 0
-463 -439 -400 0
-464 -440 -401 0
-465 -441 -402 0
-466 -439 -403 0
-467 -440 -404 0
-468 -441 -405 0
-469 -439 -406 0
-470 -440 -407 0
-471 -441 -408 0
-472 -439 -409 0
-473 -440 -410 0
-474 -441 -411 0
-475 -439 -412 0
-476 -440 -413 0
-477 -441 -414 0
-478 -439 -415 0
-479 -440 -416 0
-480 -441 -417 0
-481 -439 -418 0
-482 -440 -419 0
-483 -441 -420 0
-484 -439 -421 0
-485 -440 -422 0
-486 -441 -423 0
-487 -439 -424 0
-488 -440 -425 0
-489 -441 -426 0
-490 -439 -427 0
-491 -440 -428 0
-492 -441 -429 0
-493 -439 -430 0
-494 -440 -431 0
-495 -441 -432 0
-496 -439 -433 0
-497 -440 -434 0
-498 -441 -435 0
-499 -439 -436 0
-500 -440 -437 0
-501 -441 -438 0
-502 -439 0
-503 -440 0
-504 -441 0
-505 -442 -439 0
-506 -443 -440 0
-507 -444 -441 0
-508 -445 -439 0
-509 -446 -440 0
-510 -447 -441 0
-511 -448 -439 0
-512 -449 -440 0
-513 -450 -441 0
-514 -451 -439 0
-515 -452 -440 0
-516 -453 -441 0
-517 -454 -439 0
-518 -455 -440 0
-519 -456 -441 0
-520 -457 -439 0
-521 -458 -440 0
-522 -459 -441 0
-523 -460 -439 0
-524 -461 -440 0
-525 -462 -441 0
-526 -463 -439 0
-527 -464 -440 0
-528 -465 -441 0
-529 -466 -439 0
-530 -467 -440 0
-531 -468 -441 0
-532 -469 -439 0
-533 -470 -440 0
-534 -471 -441 0
-535 -472 -439 0
-536 -473 -440 0
-537 -474 -441 0
-538 -475 -439 0
-539 -476 -440 0
-540 -477 -441 0
-541 -478 -439 0
-542 -479 -440 0
-543 -480 -441 0
-544 -481 -439 0
-545 -482 -440 0
-546 -483 -441 0
-547 -484 -439 0
-548 -485 -440 0
-549 -486 -441 0
-550 -487 -439 0
-551 -488 -440 0
-552 -489 -441 0
-553 -490 -439 0
-554 -491 -440 0
-555 -492 -441 0
-556 -493 -439 0
-557 -494 -440 0
-558 -495 -441 0
-559 -496 -439 0
-560 -497 -440 0
-561 -498 -441 0
-562 -499 -439 0
-563 -500 -440 0
-564 -501 -441 0
-565 -502 -439 0
-566 -503 -440 0
-567 -504 -441 0
-568 -505 -439 0
-569 -506 -440 0
-570 -507 -441 0
-571 -508 -439 0
-572 -509 -440 0
-573 -510 -441 0
-574 -511 -439 0
-575 -512 -440 0
-576 -513 -441 0
-577 -514 -439 0
-578 -515 -440 0
-579 -516 -441 0
-580 -517 -439 0
-581 -518 -440 0
-582 -519 -441 0
-583 -520 -439 0
-584 -521 -440 0
-585 -522 -441 0
-586 -523 -439 0
-587 -524 -440 0
-588 -525 -441 0
-589 -526 -439 0
-590 -527 -440 0
-591 -528 -441 0
-592 -529 -439 0
-593 -530 -440 0
-594 -531 -441 0
-595 -532 -439 0
-596 -533 -440 0
-597 -534 -441 0
-598 -535 -439 0
-599 -536 -440 0
-600 -537 -441 0
-601 -538 -439 0
-602 -539 -440 0
-603 -540 -441 0
-604 -541 -439 0
-605 -542 -440 0
-606 -543 -441 0
-607 -544 -439 0
-608 -545 -440 0
-609 -546 -441 0
-610 -547 -439 0
-611 -548 -440 0
-612 -549 -441 0
-613 -550 -439 0
-614 -551 -440 0
-615 -552 -441 0
-616 -553 -439 0
-617 -554 -440 0
-618 -555 -441 0
-619 -556 -439 0
-620 -557 -440 0
-621 -558 -441 0
-622 -559 -439 0
-623 -560 -440 0
-624 -561 -441 0
-625 -562 -439 0
-626 -563 -440 0
-627 -564 -441 0
-628 -565 -439 0
-629 -566 -440 0
-630 -567 -441 0
-631 -568 -439 0
-632 -569 -440 0
-633 -570 -441 0
-634 -571 -439 0
-635 -572 -440 0
-636 -573 -441 0
-637 -574 -439 0
-638 -575 -440 0
-639 -576 -441 0
-640 -577 -439 0
-641 -578 -440 0
-642 -579 -441 0
-643 -580 -439 0
-644 -581 -440 0
-645 -582 -441 0
-646 -583 -439 0
-647 -584 -440 0
-648 -585 -441 0
-649 -586 -439 0
-650 -587 -440 0
-651 -588 -441 0
-652 -589 -439 0
-653 -590 -440 0
-654 -591 -441 0
-655 -592 -439 0
-656 -593 -440 0
-657 -594 -441 0
-658 -595 -439 0
-659 -596 -440 0
-660 -597 -441 0
-661 -598 -439 0
-662 -599 -440 0
-663 -600 -441 0
-664 -601 -439 0
-665 -602 -440 0
-666 -603 -441 0
-667 -604 -439 0
-668 -605 -440 0
-669 -606 -441 0
-670 -607 -439 0
-671 -608 -440 0
-672 -609 -441 0
-673 -610 -439 0
-674 -611 -440 0
-675 -612 -441 0
-676 -613 -439 0
-677 -614 -440 0
-678 -615 -441 0
-679 -616 -439 0
-680 -617 -440 0
-681 -618 -441 0
-682 -619 -439 0
-683 -620 -440 0
-684 -621 -441 0
-685 -622 -439 0
-686 -623 -440 0
-687 -624 -441 0
-688 -625 -439 0
-689 -626 -440 0
-690 -627 -441 0
-691 -628 -439 0
-692 -629 -440 0
-693 -630 -441 0
-694 -631 -439 0
-695 -632 -440 0
-696 -633 -441 0
-697 -634 -439 0
-698 -635 -440 0
-699 -636 -441 0
-700 -637 -439 0
-701 -638 -440 0
-702 -639 -441 0
-703 -640 -439 0
-704 -641 -440 0
-705 -642 -441 0
-706 -643 -439 0
-707 -644 -440 0
-708 -645 -441 0
-709 -646 -439 0
-710 -647 -440 0
-711 -648 -441 0
-712 -649 -439 0
-713 -650 -440 0
-714 -651 -441 0
-715 -652 -439 0
-716 -653 -440 0
-717 -654 -441 0
-718 -655 -439 0
-719 -656 -440 0
-720 -657 -441 0
-721 -658 -439 0
-722 -659 -440 0
-723 -660 -441 0
-724 -661 -439 0
-725 -662 -440 0
-726 -663 -441 0
-727 -664 -439 0
-728 -665 -440 0
-729 -666 -441 0
-730 -667 -439 0
-731 -668 -440 0
-732 -669 -441 0
-733 -670 -439 0
-734 -671 -440 0
-735 -672 -441 0
-736 -673 -439 0
-737 -674 -440 0
-738 -675 -441 0
-739 -676 -439 0
-740 -677 -440 0
-741 -678 -441 0
-742 -679 -439 0
-743 -680 -440 0
-744 -681 -441 0
-745 -682 -439 0
-746 -683 -440 0
-747 -684 -441 0
-748 -685 -439 0
-749 -686 -440 0
-750 -687 -441 0
-751 -688 -439 0
-752 -689 -440 0
-753 -690 -441 0
-754 -691 -439 0
-755 -692 -440 0
-756 -693 -441 0
-757 -694 -439 0
-758 -695 -440 0
-759 -696 -441 0
-760 -697 -439 0
-761 -698 -440 0
-762 -699 -441 0
-763 -700 -439 0
-764 -701 -440 0
-765 -702 -441 0
-766 -703 -439 0
-767 -704 -440 0
-768 -705 -441 0
-769 -706 -439 0
-770 -707 -440 0
-771 -708 -441 0
-772 -709 -439 0
-773 -710 -440 0
-774 -711 -441 0
-775 -712 -439 0
-776 -713 -440 0
-777 -714 -441 0
-778 -715 -439 0
-779 -716 -440 0
-780 -717 -441 0
-781 -718 -439 0
-782 -719 -440 0
-783 -720 -441 0
-784 -721 -439 0
-785 -722 -440 0
-786 -723 -441 0
-787 -724 -439 0
-788 -725 -440 0
-789 -726 -441 0
-790 -727 -439 0
-791 -728 -440 0
-792 -729 -441 0
-793 -730 -439 0
-794 -731 -440 0
-795 -732 -441 0
-796 -733 -439 0
-797 -734 -440 0
-798 -735 -441 0
-799 -736 -439 0
-800 -737 -440 0
-801 -738 -441 0
-802 -739 -439 0
-803 -740 -440 0
-804 -741 -441 0
-805 -742 -439 0
-806 -743 -440 0
-807 -744 -441 0
-808 -745 -439 0
-809 -746 -440 0
-810 -747 -441 0
-811 -748 -439 0
-812 -749 -440 0
-813 -750 -441 0
-814 -751 -439 0
-815 -752 -440 0
-816 -753 -441 0
-817 -754 -439 0
-818 -755 -440 0
-819 -756 -441 0
-820 -757 -439 0
-821 -758 -440 0
-822 -759 -441 0
-823 -760 -439 0
-824 -761 -440 0
-825 -762 -441 0
-826 -763 -439 0
-827 -764 -440 0
-828 -765 -441 0
-829 -766 -439 0
-830 -767 -440 0
-831 -768 -441 0
-832 -769 -439 0
-833 -770 -440 0
-834 -771 -441 0
-835 -772 -439 0
-836 -773 -440 0
-837 -774 -441 0
-838 -775 -439 0
-839 -776 -440 0
-840 -777 -441 0
-841 -778 -439 0
-842 -779 -440 0
-843 -780 -441 0
-844 -781 -439 0
-845 -782 -440 0
-846 -783 -441 0
-847 -784 -439 0
-848 -785 -440 0
-849 -786 -441 0
-850 -787 -439 0
-851 -788 -440 0
-852 -789 -441 0
-853 -790 -439 0
-854 -791 -440 0
-855 -792 -441 0
-856 -793 -439 0
-857 -794 -440 0
-858 -795 -441 0
-859 -796 -439 0
-860 -797 -440 0
-861 -798 -441 0
-862 -799 -439 0
-863 -800 -440 0
-864 -801 -441 0
-865 -802 -439 0
-866 -803 -440 0
-867 -804 -441 0
-868 -805 -439 0
-869 -806 -440 0
-870 -807 -441 0
-871 -808 -439 0
-872 -809 -440 0
-873 -810 -441 0
-874 -811 -439 0
-875 -812 -440 0
-876 -813 -441 0
-877 -814 -439 0
-878 -815 -440 0
-879 -816 -441 0
-880 -817 -439 0
-881 -818 -440 0
-882 -819 -441 0
-883 -820 -439 0
-884 -821 -440 0
-885 -822 -441 0
-886 -823 -439 0
-887 -824 -440 0
-888 -825 -441 0
-889 -826 -439 0
-890 -827 -440 0
-891 -828 -441 0
-892 -829 -439 0
-893 -830 -440 0
-894 -831 -441 0
-895 -832 -439 0
-896 -833 -440 0
-897 -834 -441 0
-898 -835 -439 0
-899 -836 -440 0
-900 -837 -441 0
-901 -838 -439 0
-902 -839 -440 0
-903 -840 -441 0
-904 -841 -439 0
-905 -842 -440 0
-906 -843 -441 0
-907 -844 -439 0
-908 -845 -440 0
-909 -846 -441 0
-910 -847 -439 0
-911 -848 -440 0
-912 -849 -441 0
-913 -850 -439 0
-914 -851 -440 0
-915 -852 -441 0
-916 -853 -439 0
-917 -854 -440 0
-918 -855 -441 0
-919 -856 -439 0
-920 -857 -440 0
-921 -858 -441 0
-922 -859 -439 0
-923 -860 -440 0
-924 -861 -441 0
-925 -862 -439 0
-926 -863 -440 0
-927 -864 -441 0
-928 -865 -439 0
-929 -866 -440 0
-930 -867 -441 0
-931 -868 -439 0
-932 -869 -440 0
-933 -870 -441 0
-934 -871 -439 0
-935 -872 -440 0
-936 -873 -441 0
-937 -874 -439 0
-938 -875 -440 0
-939 -876 -441 0
-940 -877 -439 0
-941 -878 -440 0
-942 -879 -441 0
-943 -880 -439 0
-944 -881 -440 0
-945 -882 -441 0
-946 -883 -439 0
-947 -884 -440 0
-948 -885 -441 0
-949 -886 -439 0
-950 -887 -440 0
-951 -888 -441 0
-952 -889 -439 0
-953 -890 -440 0
-954 -891 -441 0
-955 -892 -439 0
-956 -893 -440 0
-957 -894 -441 0
-958 -895 -439 0
-959 -896 -440 0
-960 -897 -441 0
-961 -898 -439 0
-962 -899 -440 0
-963 -900 -441 0
-964 -901 -439 0
-965 -902 -440 0
-966 -903 -441 0
-967 -904 -439 0
-968 -905 -440 0
-969 -906 -441 0
-970 -907 -439 0
-971 -908 -440 0
-972 -909 -441 0
-973 -910 -439 0
-974 -911 -440 0
-975 -912 -441 0
-976 -913 -439 0
-977 -914 -440 0
-978 -915 -441 0
-979 -916 -439 0
-980 -917 -440 0
-981 -918 -441 0
-982 -919 -439 0
-983 -920 -440 0
-984 -921 -441 0
-985 -922 -439 0
-986 -923 -440 0
-987 -924 -441 0
-988 -925 -439 0
-989 -926 -440 0
-990 -927 -441 0
-991 -928 -439 0
-992 -929 -440 0
-993 -930 -441 0
-994 -931 -439 0
-995 -932 -440 0
-996 -933 -441 0
-997 -934 -439 0
-998 -935 -440 0
-999 -936 -441 0
-1000 -937 -439 0
-1001 -938 -440 0
-1002 -939 -441 0
-1003 -940 -439 0
-1004 -941 -440 0
-1005 -942 -441 0
-1006 -943 -439 0
-1007 -944 -440 0
-1008 -945 -441 0
-1009 -946 -439 0
-1010 -947 -440 0
-1011 -948 -441 0
-1012 -949 -439 0
-1013 -950 -440 0
-1014 -951 -441 0
-1015 -952 -439 0
-1016 -953 -440 0
-1017 -954 -441 0
-1018 -955 -439 0
-1019 -956 -440 0
-1020 -957 -441 0
-1021 -958 -439 0
-1022 -959 -440 0
-1023 -960 -441 0
-1024 -961 -439 0
-1025 -962 -440 0
-1026 -963 -441 0
-1027 -964 -439 0
-1028 -965 -440 0
-1029 -966 -441 0
-460 -67 -1 0
-461 -68 -2 0
-462 -69 -3 0
-460 -70 -4 0
-461 -71 -5 0
-462 -72 -6 0
-460 -73 -7 0
-461 -74 -8 0
-462 -75 -9 0
-460 -76 -10 0
-461 -77 -11 0
-462 -78 -12 0
-460 -79 -13 0
-461 -80 -14 0
-462 -81 -15 0
-460 -82 -16 0
-461 -83 -17 0
-462 -84 -18 0
-460 -85 -19 0
-461 -86 -20 0
-462 -87 -21 0
-460 -88 -22 0
-461 -89 -23 0
-462 -90 -24 0
-460 -91 -25 0
-461 -92 -26 0
-462 -93 -27 0
-460 -94 -28 0
-461 -95 -29 0
-462 -96 -30 0
-460 -97 -31 0
-461 -98 -32 0
-462 -99 -33 0
-460 -100 -34 0
-461 -101 -35 0
-462 -102 -36 0
-460 -103 -37 0
-461 -104 -38 0
-462 -105 -39 0
-460 -106 -40 0
-461 -107 -41 0
-462 -108 -42 0
-460 -109 -43 0
-461 -110 -44 0
-462 -111 -45 0
-460 -112 -46 0
-461 -113 -47 0
-462 -114 -48 0
-460 -115 -49 0
-461 -116 -50 0
-462 -117 -51 0
-460 -118 -52 0
-461 -119 -53 0
-462 -120 -54 0
-460 -121 -55 0
-461 -122 -56 0
-462 -123 -57 0
-460 -124 -58 0
-461 -125 -59 0
-462 -126 -60 0
-460 -127 -61 0
-461 -128 -62 0
-462 -129 -63 0
-460 -130 -64 0
-461 -131 -65 0
-462 -132 -66 0
-460 -133 -67 0
-461 -134 -68 0
-462 -135 -69 0
-460 -136 -70 0
-461 -137 -71 0
-462 -138 -72 0
-460 -139 -73 0
-461 -140 -74 0
-462 -141 -75 0
-460 -142 -76 0
-461 -143 -77 0
-462 -144 -78 0
-460 -145 -79 0
-461 -146 -80 0
-462 -147 -81 0
-460 -148 -82 0
-461 -149 -83 0
-462 -150 -84 0
-460 -151 -85 0
-461 -152 -86 0
-462 -153 -87 0
-460 -154 -88 0
-461 -155 -89 0
-462 -156 -90 0
-460 -157 -91 0
-461 -158 -92 0
-462 -159 -93 0
-460 -160 -94 0
-461 -161 -95 0
-462 -162 -96 0
-460 -163 -97 0
-461 -164 -98 0
-462 -165 -99 0
-460 -166 -100 0
-461 -167 -101 0
-462 -168 -102 0
-460 -169 -103 0
-461 -170 -104 0
-462 -171 -105 0
-460 -172 -106 0
-461 -173 -107 0
-462 -174 -108 0
-460 -175 -109 0
-461 -176 -110 0
-462 -177 -111 0
-460 -178 -112 0
-461 -179 -113 0
-462 -180 -114 0
-460 -181 -115 0
-461 -182 -116 0
-462 -183 -117 0
-460 -184 -118 0
-461 -185 -119 0
-462 -186 -120 0
-460 -187 -121 0
-461 -188 -122 0
-462 -189 -123 0
-460 -190 -124 0
-461 -191 -125 0
-462 -192 -126 0
-460 -193 -127 0
-461 -194 -128 0
-462 -195 -129 0
-460 -196 -130 0
-461 -197 -131 0
-462 -198 -132 0
-460 -199 -133 0
-461 -200 -134 0
-462 -201 -135 0
-460 -202 -136 0
-461 -203 -137 0
-462 -204 -138 0
-460 -205 -139 0
-461 -206 -140 0
-462 -207 -141 0
-460 -208 -142 0
-461 -209 -143 0
-462 -210 -144 0
-460 -211 -145 0
-461 -212 -146 0
-462 -213 -147 0
-460 -214 -148 0
-461 -215 -149 0
-462 -216 -150 0
-460 -217 -151 0
-461 -218 -152 0
-462 -219 -153 0
-460 -220 -154 0
-461 -221 -155 0
-462 -222 -156 0
-460 -223 -157 0
-461 -224 -158 0
-462 -225 -159 0
-460 -226 -160 0
-461 -227 -161 0
-462 -228 -162 0
-460 -229 -163 0
-461 -230 -164 0
-462 -231 -165 0
-460 -232 -166 0
-461 -233 -167 0
-462 -234 -168 0
-460 -235 -169 0
-461 -236 -170 0
-462 -237 -171 0
-460 -238 -172 0
-461 -239 -173 0
-462 -240 -174 0
-460 -241 -175 0
-461 -242 -176 0
-462 -243 -177 0
-460 -244 -178 0
-461 -245 -179 0
-462 -246 -180 0
-460 -247 -181 0
-461 -248 -182 0
-462 -249 -183 0
-460 -250 -184 0
-461 -251 -185 0
-462 -252 -186 0
-460 -253 -187 0
-461 -254 -188 0
-462 -255 -189 0
-460 -256 -190 0
-461 -257 -191 0
-462 -258 -192 0
-460 -259 -193 0
-461 -260 -194 0
-462 -261 -195 0
-460 -262 -196 0
-461 -263 -197 0
-462 -264 -198 0
-460 -265 -199 0
-461 -266 -200 0
-462 -267 -201 0
-460 -268 -202 0
-461 -269 -203 0
-462 -270 -204 0
-460 -271 -205 0
-461 -272 -206 0
-462 -273 -207 0
-460 -274 -208 0
-461 -275 -209 0
-462 -276 -210 0
-460 -277 -211 0
-461 -278 -212 0
-462 -279 -213 0
-460 -280 -214 0
-461 -281 -215 0
-462 -282 -216 0
-460 -283 -217 0
-461 -284 -218 0
-462 -285 -219 0
-460 -286 -220 0
-461 -287 -221 0
-462 -288 -222 0
-460 -289 -223 0
-461 -290 -224 0
-462 -291 -225 0
-460 -292 -226 0
-461 -293 -227 0
-462 -294 -228 0
-460 -295 -229 0
-461 -296 -230 0
-462 -297 -231 0
-460 -298 -232 0
-461 -299 -233 0
-462 -300 -234 0
-460 -301 -235 0
-461 -302 -236 0
-462 -303 -237 0
-460 -304 -238 0
-461 -305 -239 0
-462 -306 -240 0
-460 -307 -241 0
-461 -308 -242 0
-462 -309 -243 0
-460 -310 -244 0
-461 -311 -245 0
-462 -312 -246 0
-460 -313 -247 0
-461 -314 -248 0
-462 -315 -249 0
-460 -316 -250 0
-461 -317 -251 0
-462 -318 -252 0
-460 -319 -253 0
-461 -320 -254 0
-462 -321 -255 0
-460 -322 -256 0
-461 -323 -257 0
-462 -324 -258 0
-460 -325 -259 0
-461 -326 -260 0
-462 -327 -261 0
-460 -328 -262 0
-461 -329 -263 0
-462 -330 -264 0
-460 -331 -265 0
-461 -332 -266 0
-462 -333 -267 0
-460 -334 -268 0
-461 -335 -269 0
-462 -336 -270 0
-460 -337 -271 0
-461 -338 -272 0
-462 -339 -273 0
-460 -340 -274 0
-461 -341 -275 0
-462 -342 -276 0
-460 -343 -277 0
-461 -344 -278 0
-462 -345 -279 0
-460 -346 -280 0
-461 -347 -281 0
-462 -348 -282 0
-460 -349 -283 0
-461 -350 -284 0
-462 -351 -285 0
-460 -352 -286 0
-461 -353 -287 0
-462 -354 -288 0
-460 -355 -289 0
-461 -356 -290 0
-462 -357 -291 0
-460 -358 -292 0
-461 -359 -293 0
-462 -360 -294 0
-460 -361 -295 0
-461 -362 -296 0
-462 -363 -297 0
-460 -364 -298 0
-461 -365 -299 0
-462 -366 -300 0
-460 -367 -301 0
-461 -368 -302 0
-462 -369 -303 0
-460 -370 -304 0
-461 -371 -305 0
-462 -372 -306 0
-460 -373 -307 0
-461 -374 -308 0
-462 -375 -309 0
-460 -376 -310 0
-461 -377 -311 0
-462 -378 -312 0
-460 -379 -313 0
-461 -380 -314 0
-462 -381 -315 0
-460 -382 -316 0
-461 -383 -317 0
-462 -384 -318 0
-460 -385 -319 0
-461 -386 -320 0
-462 -387 -321 0
-460 -388 -322 0
-461 -389 -323 0
-462 -390 -324 0
-460 -391 -325 0
-461 -392 -326 0
-462 -393 -327 0
-460 -394 -328 0
-461 -395 -329 0
-462 -396 -330 0
-460 -397 -331 0
-461 -398 -332 0
-462 -399 -333 0
-460 -400 -334 0
-461 -401 -335 0
-462 -402 -336 0
-460 -403 -337 0
-461 -404 -338 0
-462 -405 -339 0
-460 -406 -340 0
-461 -407 -341 0
-462 -408 -342 0
-460 -409 -343 0
-461 -410 -344 0
-462 -411 -345 0
-460 -412 -346 0
-461 -413 -347 0
-462 -414 -348 0
-460 -415 -349 0
-461 -416 -350 0
-462 -417 -351 0
-460 -418 -352 0
-461 -419 -353 0
-462 -420 -354 0
-460 -421 -355 0
-461 -422 -356 0
-462 -423 -357 0
-460 -424 -358 0
-461 -425 -359 0
-462 -426 -360 0
-460 -427 -361 0
-461 -428 -362 0
-462 -429 -363 0
-460 -430 -364 0
-461 -431 -365 0
-462 -432 -366 0
-460 -433 -367 0
-461 -434 -368 0
-462 -435 -369 0
-460 -436 -370 0
-461 -437 -371 0
-462 -438 -372 0
-460 -439 -373 0
-461 -440 -374 0
-462 -441 -375 0
-460 -442 -376 0
-461 -443 -377 0
-462 -444 -378 0
-460 -445 -379 0
-461 -446 -380 0
-462 -447 -381 0
-460 -448 -382 0
-461 -449 -383 0
-462 -450 -384 0
-460 -451 -385 0
-461 -452 -386 0
-462 -453 -387 0
-460 -454 -388 0
-461 -455 -389 0
-462 -456 -390 0
-460 -457 -391 0
-461 -458 -392 0
-462 -459 -393 0
-460 -394 0
-461 -395 0
-462 -396 0
-463 -460 -397 0
-464 -461 -398 0
-465 -462 -399 0
-466 -460 -400 0
-467 -461 -401 0
-468 -462 -402 0
-469 -460 -403 0
-470 -461 -404 0
-471 -462 -405 0
-472 -460 -406 0
-473 -461 -407 0
-474 -462 -408 0
-475 -460 -409 0
-476 -461 -410 0
-477 -462 -411 0
-478 -460 -412 0
-479 -461 -413 0
-480 -462 -414 0
-481 -460 -415 0
-482 -461 -416 0
-483 -462 -417 0
-484 -460 -418 0
-485 -461 -419 0
-486 -462 -420 0
-487 -460 -421 0
-488 -461 -422 0
-489 -462 -423 0
-490 -460 -424 0
-491 -461 -425 0
-492 -462 -426 0
-493 -460 -427 0
-494 -461 -428 0
-495 -462 -429 0
-496 -460 -430 0
-497 -461 -431 0
-498 -462 -432 0
-499 -460 -433 0
-500 -461 -434 0
-501 -462 -435 0
-502 -460 -436 0
-503 -461 -437 0
-504 -462 -438 0
-505 -460 -439 0
-506 -461 -440 0
-507 -462 -441 0
-508 -460 -442 0
-509 -461 -443 0
-510 -462 -444 0
-511 -460 -445 0
-512 -461 -446 0
-513 -462 -447 0
-514 -460 -448 0
-515 -461 -449 0
-516 -462 -450 0
-517 -460 -451 0
-518 -461 -452 0
-519 -462 -453 0
-520 -460 -454 0
-521 -461 -455 0
-522 -462 -456 0
-523 -460 -457 0
-524 -461 -458 0
-525 -462 -459 0
-526 -460 0
-527 -461 0
-528 -462 0
-529 -463 -460 0
-530 -464 -461 0
-531 -465 -462 0
-532 -466 -460 0
-533 -467 -461 0
-534 -468 -462 0
-535 -469 -460 0
-536 -470 -461 0
-537 -471 -462 0
-538 -472 -460 0
-539 -473 -461 0
-540 -474 -462 0
-541 -475 -460 0
-542 -476 -461 0
-543 -477 -462 0
-544 -478 -460 0
-545 -479 -461 0
-546 -480 -462 0
-547 -481 -460 0
-548 -482 -461 0
-549 -483 -462 0
-550 -484 -460 0
-551 -485 -461 0
-552 -486 -462 0
-553 -487 -460 0
-554 -488 -461 0
-555 -489 -462 0
-556 -490 -460 0
-557 -491 -461 0
-558 -492 -462 0
-559 -493 -460 0
-560 -494 -461 0
-561 -495 -462 0
-562 -496 -460 0
-563 -497 -461 0
-564 -498 -462 0
-565 -499 -460 0
-566 -500 -461 0
-567 -501 -462 0
-568 -502 -460 0
-569 -503 -461 0
-570 -504 -462 0
-571 -505 -460 0
-572 -506 -461 0
-573 -507 -462 0
-574 -508 -460 0
-575 -509 -461 0
-576 -510 -462 0
-577 -511 -460 0
-578 -512 -461 0
-579 -513 -462 0
-580 -514 -460 0
-581 -515 -461 0
-582 -516 -462 0
-583 -517 -460 0
-584 -518 -461 0
-585 -519 -462 0
-586 -520 -460 0
-587 -521 -461 0
-588 -522 -462 0
-589 -523 -460 0
-590 -524 -461 0
-591 -525 -462 0
-592 -526 -460 0
-593 -527 -461 0
-594 -528 -462 0
-595 -529 -460 0
-596 -530 -461 0
-597 -531 -462 0
-598 -532 -460 0
-599 -533 -461 0
-600 -534 -462 0
-601 -535 -460 0
-602 -536 -461 0
-603 -537 -462 0
-604 -538 -460 0
-605 -539 -461 0
-606 -540 -462 0
-607 -541 -460 0
-608 -542 -461 0
-609 -543 -462 0
-610 -544 -460 0
-611 -545 -461 0
-612 -546 -462 0
-613 -547 -460 0
-614 -548 -461 0
-615 -549 -462 0
-616 -550 -460 0
-617 -551 -461 0
-618 -552 -462 0
-619 -553 -460 0
-620 -554 -461 0
-621 -555 -462 0
-622 -556 -460 0
-623 -557 -461 0
-624 -558 -462 0
-625 -559 -460 0
-626 -560 -461 0
-627 -561 -462 0
-628 -562 -460 0
-629 -563 -461 0
-630 -564 -462 0
-631 -565 -460 0
-632 -566 -461 0
-633 -567 -462 0
-634 -568 -460 0
-635 -569 -461 0
-636 -570 -462 0
-637 -571 -460 0
-638 -572 -461 0
-639 -573 -462 0
-640 -574 -460 0
-641 -575 -461 0
-642 -576 -462 0
-643 -577 -460 0
-644 -578 -461 0
-645 -579 -462 0
-646 -580 -460 0
-647 -581 -461 0
-648 -582 -462 0
-649 -583 -460 0
-650 -584 -461 0
-651 -585 -462 0
-652 -586 -460 0
-653 -587 -461 0
-654 -588 -462 0
-655 -589 -460 0
-656 -590 -461 0
-657 -591 -462 0
-658 -592 -460 0
-659 -593 -461 0
-660 -594 -462 0
-661 -595 -460 0
-662 -596 -461 0
-663 -597 -462 0
-664 -598 -460 0
-665 -599 -461 0
-666 -600 -462 0
-667 -601 -460 0
-668 -602 -461 0
-669 -603 -462 0
-670 -604 -460 0
-671 -605 -461 0
-672 -606 -462 0
-673 -607 -460 0
-674 -608 -461 0
-675 -609 -462 0
-676 -610 -460 0
-677 -611 -461 0
-678 -612 -462 0
-679 -613 -460 0
-680 -614 -461 0
-681 -615 -462 0
-682 -616 -460 0
-683 -617 -461 0
-684 -618 -462 0
-685 -619 -460 0
-686 -620 -461 0
-687 -621 -462 0
-688 -622 -460 0
-689 -623 -461 0
-690 -624 -462 0
-691 -625 -460 0
-692 -626 -461 0
-693 -627 -462 0
-694 -628 -460 0
-695 -629 -461 0
-696 -630 -462 0
-697 -631 -460 0
-698 -632 -461 0
-699 -633 -462 0
-700 -634 -460 0
-701 -635 -461 0
-702 -636 -462 0
-703 -637 -460 0
-704 -638 -461 0
-705 -639 -462 0
-706 -640 -460 0
-707 -641 -461 0
-708 -642 -462 0
-709 -643 -460 0
-710 -644 -461 0
-711 -645 -462 0
-712 -646 -460 0
-713 -647 -461 0
-714 -648 -462 0
-715 -649 -460 0
-716 -650 -461 0
-717 -651 -462 0
-718 -652 -460 0
-719 -653 -461 0
-720 -654 -462 0
-721 -655 -460 0
-722 -656 -461 0
-723 -657 -462 0
-724 -658 -460 0
-725 -659 -461 0
-726 -660 -462 0
-727 -661 -460 0
-728 -662 -461 0
-729 -663 -462 0
-730 -664 -460 0
-731 -665 -461 0
-732 -666 -462 0
-733 -667 -460 0
-734 -668 -461 0
-735 -669 -462 0
-736 -670 -460 0
-737 -671 -461 0
-738 -672 -462 0
-739 -673 -460 0
-740 -674 -461 0
-741 -675 -462 0
-742 -676 -460 0
-743 -677 -461 0
-744 -678 -462 0
-745 -679 -460 0
-746 -680 -461 0
-747 -681 -462 0
-748 -682 -460 0
-749 -683 -461 0
-750 -684 -462 0
-751 -685 -460 0
-752 -686 -461 0
-753 -687 -462 0
-754 -688 -460 0
-755 -689 -461 0
-756 -690 -462 0
-757 -691 -460 0
-758 -692 -461 0
-759 -693 -462 0
-760 -694 -460 0
-761 -695 -461 0
-762 -696 -462 0
-763 -697 -460 0
-764 -698 -461 0
-765 -699 -462 0
-766 -700 -460 0
-767 -701 -461 0
-768 -702 -462 0
-769 -703 -460 0
-770 -704 -461 0
-771 -705 -462 0
-772 -706 -460 0
-773 -707 -461 0
-774 -708 -462 0
-775 -709 -460 0
-776 -710 -461 0
-777 -711 -462 0
-778 -712 -460 0
-779 -713 -461 0
-780 -714 -462 0
-781 -715 -460 0
-782 -716 -461 0
-783 -717 -462 0
-784 -718 -460 0
-785 -719 -461 0
-786 -720 -462 0
-787 -721 -460 0
-788 -722 -461 0
-789 -723 -462 0
-790 -724 -460 0
-791 -725 -461 0
-792 -726 -462 0
-793 -727 -460 0
-794 -728 -461 0
-795 -729 -462 0
-796 -730 -460 0
-797 -731 -461 0
-798 -732 -462 0
-799 -733 -460 0
-800 -734 -461 0
-801 -735 -462 0
-802 -736 -460 0
-803 -737 -461 0
-804 -738 -462 0
-805 -739 -460 0
-806 -740 -461 0
-807 -741 -462 0
-808 -742 -460 0
-809 -743 -461 0
-810 -744 -462 0
-811 -745 -460 0
-812 -746 -461 0
-813 -747 -462 0
-814 -748 -460 0
-815 -749 -461 0
-816 -750 -462 0
-817 -751 -460 0
-818 -752 -461 0
-819 -753 -462 0
-820 -754 -460 0
-821 -755 -461 0
-822 -756 -462 0
-823 -757 -460 0
-824 -758 -461 0
-825 -759 -462 0
-826 -760 -460 0
-827 -761 -461 0
-828 -762 -462 0
-829 -763 -460 0
-830 -764 -461 0
-831 -765 -462 0
-832 -766 -460 0
-833 -767 -461 0
-834 -768 -462 0
-835 -769 -460 0
-836 -770 -461 0
-837 -771 -462 0
-838 -772 -460 0
-839 -773 -461 0
-840 -774 -462 0
-841 -775 -460 0
-842 -776 -461 0
-843 -777 -462 0
-844 -778 -460 0
-845 -779 -461 0
-846 -780 -462 0
-847 -781 -460 0
-848 -782 -461 0
-849 -783 -462 0
-850 -784 -460 0
-851 -785 -461 0
-852 -786 -462 0
-853 -787 -460 0
-854 -788 -461 0
-855 -789 -462 0
-856 -790 -460 0
-857 -791 -461 0
-858 -792 -462 0
-859 -793 -460 0
-860 -794 -461 0
-861 -795 -462 0
-862 -796 -460 0
-863 -797 -461 0
-864 -798 -462 0
-865 -799 -460 0
-866 -800 -461 0
-867 -801 -462 0
-868 -802 -460 0
-869 -803 -461 0
-870 -804 -462 0
-871 -805 -460 0
-872 -806 -461 0
-873 -807 -462 0
-874 -808 -460 0
-875 -809 -461 0
-876 -810 -462 0
-877 -811 -460 0
-878 -812 -461 0
-879 -813 -462 0
-880 -814 -460 0
-881 -815 -461 0
-882 -816 -462 0
-883 -817 -460 0
-884 -818 -461 0
-885 -819 -462 0
-886 -820 -460 0
-887 -821 -461 0
-888 -822 -462 0
-889 -823 -460 0
-890 -824 -461 0
-891 -825 -462 0
-892 -826 -460 0
-893 -827 -461 0
-894 -828 -462 0
-895 -829 -460 0
-896 -830 -461 0
-897 -831 -462 0
-898 -832 -460 0
-899 -833 -461 0
-900 -834 -462 0
-901 -835 -460 0
-902 -836 -461 0
-903 -837 -462 0
-904 -838 -460 0
-905 -839 -461 0
-906 -840 -462 0
-907 -841 -460 0
-908 -842 -461 0
-909 -843 -462 0
-910 -844 -460 0
-911 -845 -461 0
-912 -846 -462 0
-913 -847 -460 0
-914 -848 -461 0
-915 -849 -462 0
-916 -850 -460 0
-917 -851 -461 0
-918 -852 -462 0
-919 -853 -460 0
-920 -854 -461 0
-921 -855 -462 0
-922 -856 -460 0
-923 -857 -461 0
-924 -858 -462 0
-925 -859 -460 0
-926 -860 -461 0
-927 -861 -462 0
-928 -862 -460 0
-929 -863 -461 0
-930 -864 -462 0
-931 -865 -460 0
-932 -866 -461 0
-933 -867 -462 0
-934 -868 -460 0
-935 -869 -461 0
-936 -870 -462 0
-937 -871 -460 0
-938 -872 -461 0
-939 -873 -462 0
-940 -874 -460 0
-941 -875 -461 0
-942 -876 -462 0
-943 -877 -460 0
-944 -878 -461 0
-945 -879 -462 0
-946 -880 -460 0
-947 -881 -461 0
-948 -882 -462 0
-949 -883 -460 0
-950 -884 -461 0
-951 -885 -462 0
-952 -886 -460 0
-953 -887 -461 0
-954 -888 -462 0
-955 -889 -460 0
-956 -890 -461 0
-957 -891 -462 0
-958 -892 -460 0
-959 -893 -461 0
-960 -894 -462 0
-961 -895 -460 0
-962 -896 -461 0
-963 -897 -462 0
-964 -898 -460 0
-965 -899 -461 0
-966 -900 -462 0
-967 -901 -460 0
-968 -902 -461 0
-969 -903 -462 0
-970 -904 -460 0
-971 -905 -461 0
-972 -906 -462 0
-973 -907 -460 0
-974 -908 -461 0
-975 -909 -462 0
-976 -910 -460 0
-977 -911 -461 0
-978 -912 -462 0
-979 -913 -460 0
-980 -914 -461 0
-981 -915 -462 0
-982 -916 -460 0
-983 -917 -461 0
-984 -918 -462 0
-985 -919 -460 0
-986 -920 -461 0
-987 -921 -462 0
-988 -922 -460 0
-989 -923 -461 0
-990 -924 -462 0
-991 -925 -460 0
-992 -926 -461 0
-993 -927 -462 0
-994 -928 -460 0
-995 -929 -461 0
-996 -930 -462 0
-997 -931 -460 0
-998 -932 -461 0
-999 -933 -462 0
-1000 -934 -460 0
-1001 -935 -461 0
-1002 -936 -462 0
-1003 -937 -460 0
-1004 -938 -461 0
-1005 -939 -462 0
-1006 -940 -460 0
-1007 -941 -461 0
-1008 -942 -462 0
-1009 -943 -460 0
-1010 -944 -461 0
-1011 -945 -462 0
-1012 -946 -460 0
-1013 -947 -461 0
-1014 -948 -462 0
-1015 -949 -460 0
-1016 -950 -461 0
-1017 -951 -462 0
-1018 -952 -460 0
-1019 -953 -461 0
-1020 -954 -462 0
-1021 -955 -460 0
-1022 -956 -461 0
-1023 -957 -462 0
-1024 -958 -460 0
-1025 -959 -461 0
-1026 -960 -462 0
-1027 -961 -460 0
-1028 -962 -461 0
-1029 -963 -462 0
-481 -70 -1 0
-482 -71 -2 0
-483 -72 -3 0
-481 -73 -4 0
-482 -74 -5 0
-483 -75 -6 0
-481 -76 -7 0
-482 -77 -8 0
-483 -78 -9 0
-481 -79 -10 0
-482 -80 -11 0
-483 -81 -12 0
-481 -82 -13 0
-482 -83 -14 0
-483 -84 -15 0
-481 -85 -16 0
-482 -86 -17 0
-483 -87 -18 0
-481 -88 -19 0
-482 -89 -20 0
-483 -90 -21 0
-481 -91 -22 0
-482 -92 -23 0
-483 -93 -24 0
-481 -94 -25 0
-482 -95 -26 0
-483 -96 -27 0
-481 -97 -28 0
-482 -98 -29 0
-483 -99 -30 0
-481 -100 -31 0
-482 -101 -32 0
-483 -102 -33 0
-481 -103 -34 0
-482 -104 -35 0
-483 -105 -36 0
-481 -106 -37 0
-482 -107 -38 0
-483 -108 -39 0
-481 -109 -40 0
-482 -110 -41 0
-483 -111 -42 0
-481 -112 -43 0
-482 -113 -44 0
-483 -114 -45 0
-481 -115 -46 0
-482 -116 -47 0
-483 -117 -48 0
-481 -118 -49 0
-482 -119 -50 0
-483 -120 -51 0
-481 -121 -52 0
-482 -122 -53 0
-483 -123 -54 0
-481 -124 -55 0
-482 -125 -56 0
-483 -126 -57 0
-481 -127 -58 0
-482 -128 -59 0
-483 -129 -60 0
-481 -130 -61 0
-482 -131 -62 0
-483 -132 -63 0
-481 -133 -64 0
-482 -134 -65 0
-483 -135 -66 0
-481 -136 -67 0
-482 -137 -68 0
-483 -138 -69 0
-481 -139 -70 0
-482 -140 -71 0
-483 -141 -72 0
-481 -142 -73 0
-482 -143 -74 0
-483 -144 -75 0
-481 -145 -76 0
-482 -146 -77 0
-483 -147 -78 0
-481 -148 -79 0
-482 -149 -80 0
-483 -150 -81 0
-481 -151 -82 0
-482 -152 -83 0
-483 -153 -84 0
-481 -154 -85 0
-482 -155 -86 0
-483 -156 -87 0
-481 -157 -88 0
-482 -158 -89 0
-483 -159 -90 0
-481 -160 -91 0
-482 -161 -92 0
-483 -162 -93 0
-481 -163 -94 0
-482 -164 -95 0
-483 -165 -96 0
-481 -166 -97 0
-482 -167 -98 0
-483 -168 -99 0
-481 -169 -100 0
-482 -170 -101 0
-483 -171 -102 0
-481 -172 -103 0
-482 -173 -104 0
-483 -174 -105 0
-481 -175 -106 0
-482 -176 -107 0
-483 -177 -108 0
-481 -178 -109 0
-482 -179 -110 0
-483 -180 -111 0
-481 -181 -112 0
-482 -182 -113 0
-483 -183 -114 0
-481 -184 -115 0
-482 -185 -116 0
-483 -186 -117 0
-481 -187 -118 0
-482 -188 -119 0
-483 -189 -120 0
-481 -190 -121 0
-482 -191 -122 0
-483 -192 -123 0
-481 -193 -124 0
-482 -194 -125 0
-483 -195 -126 0
-481 -196 -127 0
-482 -197 -128 0
-483 -198 -129 0
-481 -199 -130 0
-482 -200 -131 0
-483 -201 -132 0
-481 -202 -133 0
-482 -203 -134 0
-483 -204 -135 0
-481 -205 -136 0
-482 -206 -137 0
-483 -207 -138 0
-481 -208 -139 0
-482 -209 -140 0
-483 -210 -141 0
-481 -211 -142 0
-482 -212 -143 0
-483 -213 -144 0
-481 -214 -145 0
-482 -215 -146 0
-483 -216 -147 0
-481 -217 -148 0
-482 -218 -149 0
-483 -219 -150 0
-481 -220 -151 0
-482 -221 -152 0
-483 -222 -153 0
-481 -223 -154 0
-482 -224 -155 0
-483 -225 -156 0
-481 -226 -157 0
-482 -227 -158 0
-483 -228 -159 0
-481 -229 -160 0
-482 -230 -161 0
-483 -231 -162 0
-481 -232 -163 0
-482 -233 -164 0
-483 -234 -165 0
-481 -235 -166 0
-482 -236 -167 0
-483 -237 -168 0
-481 -238 -169 0
-482 -239 -170 0
-483 -240 -171 0
-481 -241 -172 0
-482 -242 -173 0
-483 -243 -174 0
-481 -244 -175 0
-482 -245 -176 0
-483 -246 -177 0
-481 -247 -178 0
-482 -248 -179 0
-483 -249 -180 0
-481 -250 -181 0
-482 -251 -182 0
-483 -252 -183 0
-481 -253 -184 0
-482 -254 -185 0
-483 -255 -186 0
-481 -256 -187 0
-482 -257 -188 0
-483 -258 -189 0
-481 -259 -190 0
-482 -260 -191 0
-483 -261 -192 0
-481 -262 -193 0
-482 -263 -194 0
-483 -264 -195 0
-481 -265 -196 0
-482 -266 -197 0
-483 -267 -198 0
-481 -268 -199 0
-482 -269 -200 0
-483 -270 -201 0
-481 -271 -202 0
-482 -272 -203 0
-483 -273 -204 0
-481 -274 -205 0
-482 -275 -206 0
-483 -276 -207 0
-481 -277 -208 0
-482 -278 -209 0
-483 -279 -210 0
-481 -280 -211 0
-482 -281 -212 0
-483 -282 -213 0
-481 -283 -214 0
-482 -284 -215 0
-483 -285 -216 0
-481 -286 -217 0
-482 -287 -218 0
-483 -288 -219 0
-481 -289 -220 0
-482 -290 -221 0
-483 -291 -222 0
-481 -292 -223 0
-482 -293 -224 0
-483 -294 -225 0
-481 -295 -226 0
-482 -296 -227 0
-483 -297 -228 0
-481 -298 -229 0
-482 -299 -230 0
-483 -300 -231 0
-481 -301 -232 0
-482 -302 -233 0
-483 -303 -234 0
-481 -304 -235 0
-482 -305 -236 0
-483 -306 -237 0
-481 -307 -238 0
-482 -308 -239 0
-483 -309 -240 0
-481 -310 -241 0
-482 -311 -242 0
-483 -312 -243 0
-481 -313 -244 0
-482 -314 -245 0
-483 -315 -246 0
-481 -316 -247 0
-482 -317 -248 0
-483 -318 -249 0
-481 -319 -250 0
-482 -320 -251 0
-483 -321 -252 0
-481 -322 -253 0
-482 -323 -254 0
-483 -324 -255 0
-481 -325 -256 0
-482 -326 -257 0
-483 -327 -258 0
-481 -328 -259 0
-482 -329 -260 0
-483 -330 -261 0
-481 -331 -262 0
-482 -332 -263 0
-483 -333 -264 0
-481 -334 -265 0
-482 -335 -266 0
-483 -336 -267 0
-481 -337 -268 0
-482 -338 -269 0
-483 -339 -270 0
-481 -340 -271 0
-482 -341 -272 0
-483 -342 -273 0
-481 -343 -274 0
-482 -344 -275 0
-483 -345 -276 0
-481 -346 -277 0
-482 -347 -278 0
-483 -348 -279 0
-481 -349 -280 0
-482 -350 -281 0
-483 -351 -282 0
-481 -352 -283 0
-482 -353 -284 0
-483 -354 -285 0
-481 -355 -286 0
-482 -356 -287 0
-483 -357 -288 0
-481 -358 -289 0
-482 -359 -290 0
-483 -360 -291 0
-481 -361 -292 0
-482 -362 -293 0
-483 -363 -294 0
-481 -364 -295 0
-482 -365 -296 0
-483 -366 -297 0
-481 -367 -298 0
-482 -368 -299 0
-483 -369 -300 0
-481 -370 -301 0
-482 -371 -302 0
-483 -372 -303 0
-481 -373 -304 0
-482 -374 -305 0
-483 -375 -306 0
-481 -376 -307 0
-482 -377 -308 0
-483 -378 -309 0
-481 -379 -310 0
-482 -380 -311 0
-483 -381 -312 0
-481 -382 -313 0
-482 -383 -314 0
-483 -384 -315 0
-481 -385 -316 0
-482 -386 -317 0
-483 -387 -318 0
-481 -388 -319 0
-482 -389 -320 0
-483 -390 -321 0
-481 -391 -322 0
-482 -392 -323 0
-483 -393 -324 0
-481 -394 -325 0
-482 -395 -326 0
-483 -396 -327 0
-481 -397 -328 0
-482 -398 -329 0
-483 -399 -330 0
-481 -400 -331 0
-482 -401 -332 0
-483 -402 -333 0
-481 -403 -334 0
-482 -404 -335 0
-483 -405 -336 0
-481 -406 -337 0
-482 -407 -338 0
-483 -408 -339 0
-481 -409 -340 0
-482 -410 -341 0
-483 -411 -342 0
-481 -412 -343 0
-482 -413 -344 0
-483 -414 -345 0
-481 -415 -346 0
-482 -416 -347 0
-483 -417 -348 0
-481 -418 -349 0
-482 -419 -350 0
-483 -420 -351 0
-481 -421 -352 0
-482 -422 -353 0
-483 -423 -354 0
-481 -424 -355 0
-482 -425 -356 0
-483 -426 -357 0
-481 -427 -358 0
-482 -428 -359 0
-483 -429 -360 0
-481 -430 -361 0
-482 -431 -362 0
-483 -432 -363 0
-481 -433 -364 0
-482 -434 -365 0
-483 -435 -366 0
-481 -436 -367 0
-482 -437 -368 0
-483 -438 -369 0
-481 -439 -370 0
-482 -440 -371 0
-483 -441 -372 0
-481 -442 -373 0
-482 -443 -374 0
-483 -444 -375 0
-481 -445 -376 0
-482 -446 -377 0
-483 -447 -378 0
-481 -448 -379 0
-482 -449 -380 0
-483 -450 -381 0
-481 -451 -382 0
-482 -452 -383 0
-483 -453 -384 0
-481 -454 -385 0
-482 -455 -386 0
-483 -456 -387 0
-481 -457 -388 0
-482 -458 -389 0
-483 -459 -390 0
-481 -460 -391 0
-482 -461 -392 0
-483 -462 -393 0
-481 -463 -394 0
-482 -464 -395 0
-483 -465 -396 0
-481 -466 -397 0
-482 -467 -398 0
-483 -468 -399 0
-481 -469 -400 0
-482 -470 -401 0
-483 -471 -402 0
-481 -472 -403 0
-482 -473 -404 0
-483 -474 -405 0
-481 -475 -406 0
-482 -476 -407 0
-483 -477 -408 0
-481 -478 -409 0
-482 -479 -410 0
-483 -480 -411 0
-481 -412 0
-482 -413 0
-483 -414 0
-484 -481 -415 0
-485 -482 -416 0
-486 -483 -417 0
-487 -481 -418 0
-488 -482 -419 0
-489 -483 -420 0
-490 -481 -421 0
-491 -482 -422 0
-492 -483 -423 0
-493 -481 -424 0
-494 -482 -425 0
-495 -483 -426 0
-496 -481 -427 0
-497 -482 -428 0
-498 -483 -429 0
-499 -481 -430 0
-500 -482 -431 0
-501 -483 -432 0
-502 -481 -433 0
-503 -482 -434 0
-504 -483 -435 0
-505 -481 -436 0
-506 -482 -437 0
-507 -483 -438 0
-508 -481 -439 0
-509 -482 -440 0
-510 -483 -441 0
-511 -481 -442 0
-512 -482 -443 0
-513 -483 -444 0
-514 -481 -445 0
-515 -482 -446 0
-516 -483 -447 0
-517 -481 -448 0
-518 -482 -449 0
-519 -483 -450 0
-520 -481 -451 0
-521 -482 -452 0
-522 -483 -453 0
-523 -481 -454 0
-524 -482 -455 0
-525 -483 -456 0
-526 -481 -457 0
-527 -482 -458 0
-528 -483 -459 0
-529 -481 -460 0
-530 -482 -461 0
-531 -483 -462 0
-532 -481 -463 0
-533 -482 -464 0
-534 -483 -465 0
-535 -481 -466 0
-536 -482 -467 0
-537 -483 -468 0
-538 -481 -469 0
-539 -482 -470 0
-540 -483 -471 0
-541 -481 -472 0
-542 -482 -473 0
-543 -483 -474 0
-544 -481 -475 0
-545 -482 -476 0
-546 -483 -477 0
-547 -481 -478 0
-548 -482 -479 0
-549 -483 -480 0
-550 -481 0
-551 -482 0
-552 -483 0
-553 -484 -481 0
-554 -485 -482 0
-555 -486 -483 0
-556 -487 -481 0
-557 -488 -482 0
-558 -489 -483 0
-559 -490 -481 0
-560 -491 -482 0
-561 -492 -483 0
-562 -493 -481 0
-563 -494 -482 0
-564 -495 -483 0
-565 -496 -481 0
-566 -497 -482 0
-567 -498 -483 0
-568 -499 -481 0
-569 -500 -482 0
-570 -501 -483 0
-571 -502 -481 0
-572 -503 -482 0
-573 -504 -483 0
-574 -505 -481 0
-575 -506 -482 0
-576 -507 -483 0
-577 -508 -481 0
-578 -509 -482 0
-579 -510 -483 0
-580 -511 -481 0
-581 -512 -482 0
-582 -513 -483 0
-583 -514 -481 0
-584 -515 -482 0
-585 -516 -483 0
-586 -517 -481 0
-587 -518 -482 0
-588 -519 -483 0
-589 -520 -481 0
-590 -521 -482 0
-591 -522 -483 0
-592 -523 -481 0
-593 -524 -482 0
-594 -525 -483 0
-595 -526 -481 0
-596 -527 -482 0
-597 -528 -483 0
-598 -529 -481 0
-599 -530 -482 0
-600 -531 -483 0
-601 -532 -481 0
-602 -533 -482 0
-603 -534 -483 0
-604 -535 -481 0
-605 -536 -482 0
-606 -537 -483 0
-607 -538 -481 0
-608 -539 -482 0
-609 -540 -483 0
-610 -541 -481 0
-611 -542 -482 0
-612 -543 -483 0
-613 -544 -481 0
-614 -545 -482 0
-615 -546 -483 0
-616 -547 -481 0
-617 -548 -482 0
-618 -549 -483 0
-619 -550 -481 0
-620 -551 -482 0
-621 -552 -483 0
-622 -553 -481 0
-623 -554 -482 0
-624 -555 -483 0
-625 -556 -481 0
-626 -557 -482 0
-627 -558 -483 0
-628 -559 -481 0
-629 -560 -482 0
-630 -561 -483 0
-631 -562 -481 0
-632 -563 -482 0
-633 -564 -483 0
-634 -565 -481 0
-635 -566 -482 0
-636 -567 -483 0
-637 -568 -481 0
-638 -569 -482 0
-639 -570 -483 0
-640 -571 -481 0
-641 -572 -482 0
-642 -573 -483 0
-643 -574 -481 0
-644 -575 -482 0
-645 -576 -483 0
-646 -577 -481 0
-647 -578 -482 0
-648 -579 -483 0
-649 -580 -481 0
-650 -581 -482 0
-651 -582 -483 0
-652 -583 -481 0
-653 -584 -482 0
-654 -585 -483 0
-655 -586 -481 0
-656 -587 -482 0
-657 -588 -483 0
-658 -589 -481 0
-659 -590 -482 0
-660 -591 -483 0
-661 -592 -481 0
-662 -593 -482 0
-663 -594 -483 0
-664 -595 -481 0
-665 -596 -482 0
-666 -597 -483 0
-667 -598 -481 0
-668 -599 -482 0
-669 -600 -483 0
-670 -601 -481 0
-671 -602 -482 0
-672 -603 -483 0
-673 -604 -481 0
-674 -605 -482 0
-675 -606 -483 0
-676 -607 -481 0
-677 -608 -482 0
-678 -609 -483 0
-679 -610 -481 0
-680 -611 -482 0
-681 -612 -483 0
-682 -613 -481 0
-683 -614 -482 0
-684 -615 -483 0
-685 -616 -481 0
-686 -617 -482 0
-687 -618 -483 0
-688 -619 -481 0
-689 -620 -482 0
-690 -621 -483 0
-691 -622 -481 0
-692 -623 -482 0
-693 -624 -483 0
-694 -625 -481 0
-695 -626 -482 0
-696 -627 -483 0
-697 -628 -481 0
-698 -629 -482 0
-699 -630 -483 0
-700 -631 -481 0
-701 -632 -482 0
-702 -633 -483 0
-703 -634 -481 0
-704 -635 -482 0
-705 -636 -483 0
-706 -637 -481 0
-707 -638 -482 0
-708 -639 -483 0
-709 -640 -481 0
-710 -641 -482 0
-711 -642 -483 0
-712 -643 -481 0
-713 -644 -482 0
-714 -645 -483 0
-715 -646 -481 0
-716 -647 -482 0
-717 -648 -483 0
-718 -649 -481 0
-719 -650 -482 0
-720 -651 -483 0
-721 -652 -481 0
-722 -653 -482 0
-723 -654 -483 0
-724 -655 -481 0
-725 -656 -482 0
-726 -657 -483 0
-727 -658 -481 0
-728 -659 -482 0
-729 -660 -483 0
-730 -661 -481 0
-731 -662 -482 0
-732 -663 -483 0
-733 -664 -481 0
-734 -665 -482 0
-735 -666 -483 0
-736 -667 -481 0
-737 -668 -482 0
-738 -669 -483 0
-739 -670 -481 0
-740 -671 -482 0
-741 -672 -483 0
-742 -673 -481 0
-743 -674 -482 0
-744 -675 -483 0
-745 -676 -481 0
-746 -677 -482 0
-747 -678 -483 0
-748 -679 -481 0
-749 -680 -482 0
-750 -681 -483 0
-751 -682 -481 0
-752 -683 -482 0
-753 -684 -483 0
-754 -685 -481 0
-755 -686 -482 0
-756 -687 -483 0
-757 -688 -481 0
-758 -689 -482 0
-759 -690 -483 0
-760 -691 -481 0
-761 -692 -482 0
-762 -693 -483 0
-763 -694 -481 0
-764 -695 -482 0
-765 -696 -483 0
-766 -697 -481 0
-767 -698 -482 0
-768 -699 -483 0
-769 -700 -481 0
-770 -701 -482 0
-771 -702 -483 0
-772 -703 -481 0
-773 -704 -482 0
-774 -705 -483 0
-775 -706 -481 0
-776 -707 -482 0
-777 -708 -483 0
-778 -709 -481 0
-779 -710 -482 0
-780 -711 -483 0
-781 -712 -481 0
-782 -713 -482 0
-783 -714 -483 0
-784 -715 -481 0
-785 -716 -482 0
-786 -717 -483 0
-787 -718 -481 0
-788 -719 -482 0
-789 -720 -483 0
-790 -721 -481 0
-791 -722 -482 0
-792 -723 -483 0
-793 -724 -481 0
-794 -725 -482 0
-795 -726 -483 0
-796 -727 -481 0
-797 -728 -482 0
-798 -729 -483 0
-799 -730 -481 0
-800 -731 -482 0
-801 -732 -483 0
-802 -733 -481 0
-803 -734 -482 0
-804 -735 -483 0
-805 -736 -481 0
-806 -737 -482 0
-807 -738 -483 0
-808 -739 -481 0
-809 -740 -482 0
-810 -741 -483 0
-811 -742 -481 0
-812 -743 -482 0
-813 -744 -483 0
-814 -745 -481 0
-815 -746 -482 0
-816 -747 -483 0
-817 -748 -481 0
-818 -749 -482 0
-819 -750 -483 0
-820 -751 -481 0
-821 -752 -482 0
-822 -753 -483 0
-823 -754 -481 0
-824 -755 -482 0
-825 -756 -483 0
-826 -757 -481 0
-827 -758 -482 0
-828 -759 -483 0
-829 -760 -481 0
-830 -761 -482 0
-831 -762 -483 0
-832 -763 -481 0
-833 -764 -482 0
-834 -765 -483 0
-835 -766 -481 0
-836 -767 -482 0
-837 -768 -483 0
-838 -769 -481 0
-839 -770 -482 0
-840 -771 -483 0
-841 -772 -481 0
-842 -773 -482 0
-843 -774 -483 0
-844 -775 -481 0
-845 -776 -482 0
-846 -777 -483 0
-847 -778 -481 0
-848 -779 -482 0
-849 -780 -483 0
-850 -781 -481 0
-851 -782 -482 0
-852 -783 -483 0
-853 -784 -481 0
-854 -785 -482 0
-855 -786 -483 0
-856 -787 -481 0
-857 -788 -482 0
-858 -789 -483 0
-859 -790 -481 0
-860 -791 -482 0
-861 -792 -483 0
-862 -793 -481 0
-863 -794 -482 0
-864 -795 -483 0
-865 -796 -481 0
-866 -797 -482 0
-867 -798 -483 0
-868 -799 -481 0
-869 -800 -482 0
-870 -801 -483 0
-871 -802 -481 0
-872 -803 -482 0
-873 -804 -483 0
-874 -805 -481 0
-875 -806 -482 0
-876 -807 -483 0
-877 -808 -481 0
-878 -809 -482 0
-879 -810 -483 0
-880 -811 -481 0
-881 -812 -482 0
-882 -813 -483 0
-883 -814 -481 0
-884 -815 -482 0
-885 -816 -483 0
-886 -817 -481 0
-887 -818 -482 0
-888 -819 -483 0
-889 -820 -481 0
-890 -821 -482 0
-891 -822 -483 0
-892 -823 -481 0
-893 -824 -482 0
-894 -825 -483 0
-895 -826 -481 0
-896 -827 -482 0
-897 -828 -483 0
-898 -829 -481 0
-899 -830 -482 0
-900 -831 -483 0
-901 -832 -481 0
-902 -833 -482 0
-903 -834 -483 0
-904 -835 -481 0
-905 -836 -482 0
-906 -837 -483 0
-907 -838 -481 0
-908 -839 -482 0
-909 -840 -483 0
-910 -841 -481 0
-911 -842 -482 0
-912 -843 -483 0
-913 -844 -481 0
-914 -845 -482 0
-915 -846 -483 0
-916 -847 -481 0
-917 -848 -482 0
-918 -849 -483 0
-919 -850 -481 0
-920 -851 -482 0
-921 -852 -483 0
-922 -853 -481 0
-923 -854 -482 0
-924 -855 -483 0
-925 -856 -481 0
-926 -857 -482 0
-927 -858 -483 0
-928 -859 -481 0
-929 -860 -482 0
-930 -861 -483 0
-931 -862 -481 0
-932 -863 -482 0
-933 -864 -483 0
-934 -865 -481 0
-935 -866 -482 0
-936 -867 -483 0
-937 -868 -481 0
-938 -869 -482 0
-939 -870 -483 0
-940 -871 -481 0
-941 -872 -482 0
-942 -873 -483 0
-943 -874 -481 0
-944 -875 -482 0
-945 -876 -483 0
-946 -877 -481 0
-947 -878 -482 0
-948 -879 -483 0
-949 -880 -481 0
-950 -881 -482 0
-951 -882 -483 0
-952 -883 -481 0
-953 -884 -482 0
-954 -885 -483 0
-955 -886 -481 0
-956 -887 -482 0
-957 -888 -483 0
-958 -889 -481 0
-959 -890 -482 0
-960 -891 -483 0
-961 -892 -481 0
-962 -893 -482 0
-963 -894 -483 0
-964 -895 -481 0
-965 -896 -482 0
-966 -897 -483 0
-967 -898 -481 0
-968 -899 -482 0
-969 -900 -483 0
-970 -901 -481 0
-971 -902 -482 0
-972 -903 -483 0
-973 -904 -481 0
-974 -905 -482 0
-975 -906 -483 0
-976 -907 -481 0
-977 -908 -482 0
-978 -909 -483 0
-979 -910 -481 0
-980 -911 -482 0
-981 -912 -483 0
-982 -913 -481 0
-983 -914 -482 0
-984 -915 -483 0
-985 -916 -481 0
-986 -917 -482 0
-987 -918 -483 0
-988 -919 -481 0
-989 -920 -482 0
-990 -921 -483 0
-991 -922 -481 0
-992 -923 -482 0
-993 -924 -483 0
-994 -925 -481 0
-995 -926 -482 0
-996 -927 -483 0
-997 -928 -481 0
-998 -929 -482 0
-999 -930 -483 0
-1000 -931 -481 0
-1001 -932 -482 0
-1002 -933 -483 0
-1003 -934 -481 0
-1004 -935 -482 0
-1005 -936 -483 0
-1006 -937 -481 0
-1007 -938 -482 0
-1008 -939 -483 0
-1009 -940 -481 0
-1010 -941 -482 0
-1011 -942 -483 0
-1012 -943 -481 0
-1013 -944 -482 0
-1014 -945 -483 0
-1015 -946 -481 0
-1016 -947 -482 0
-1017 -948 -483 0
-1018 -949 -481 0
-1019 -950 -482 0
-1020 -951 -483 0
-1021 -952 -481 0
-1022 -953 -482 0
-1023 -954 -483 0
-1024 -955 -481 0
-1025 -956 -482 0
-1026 -957 -483 0
-1027 -958 -481 0
-1028 -959 -482 0
-1029 -960 -483 0
-502 -73 -1 0
-503 -74 -2 0
-504 -75 -3 0
-502 -76 -4 0
-503 -77 -5 0
-504 -78 -6 0
-502 -79 -7 0
-503 -80 -8 0
-504 -81 -9 0
-502 -82 -10 0
-503 -83 -11 0
-504 -84 -12 0
-502 -85 -13 0
-503 -86 -14 0
-504 -87 -15 0
-502 -88 -16 0
-503 -89 -17 0
-504 -90 -18 0
-502 -91 -19 0
-503 -92 -20 0
-504 -93 -21 0
-502 -94 -22 0
-503 -95 -23 0
-504 -96 -24 0
-502 -97 -25 0
-503 -98 -26 0
-504 -99 -27 0
-502 -100 -28 0
-503 -101 -29 0
-504 -102 -30 0
-502 -103 -31 0
-503 -104 -32 0
-504 -105 -33 0
-502 -106 -34 0
-503 -107 -35 0
-504 -108 -36 0
-502 -109 -37 0
-503 -110 -38 0
-504 -111 -39 0
-502 -112 -40 0
-503 -113 -41 0
-504 -114 -42 0
-502 -115 -43 0
-503 -116 -44 0
-504 -117 -45 0
-502 -118 -46 0
-503 -119 -47 0
-504 -120 -48 0
-502 -121 -49 0
-503 -122 -50 0
-504 -123 -51 0
-502 -124 -52 0
-503 -125 -53 0
-504 -126 -54 0
-502 -127 -55 0
-503 -128 -56 0
-504 -129 -57 0
-502 -130 -58 0
-503 -131 -59 0
-504 -132 -60 0
-502 -133 -61 0
-503 -134 -62 0
-504 -135 -63 0
-502 -136 -64 0
-503 -137 -65 0
-504 -138 -66 0
-502 -139 -67 0
-503 -140 -68 0
-504 -141 -69 0
-502 -142 -70 0
-503 -143 -71 0
-504 -144 -72 0
-502 -145 -73 0
-503 -146 -74 0
-504 -147 -75 0
-502 -148 -76 0
-503 -149 -77 0
-504 -150 -78 0
-502 -151 -79 0
-503 -152 -80 0
-504 -153 -81 0
-502 -154 -82 0
-503 -155 -83 0
-504 -156 -84 0
-502 -157 -85 0
-503 -158 -86 0
-504 -159 -87 0
-502 -160 -88 0
-503 -161 -89 0
-504 -162 -90 0
-502 -163 -91 0
-503 -164 -92 0
-504 -165 -93 0
-502 -166 -94 0
-503 -167 -95 0
-504 -168 -96 0
-502 -169 -97 0
-503 -170 -98 0
-504 -171 -99 0
-502 -172 -100 0
-503 -173 -101 0
-504 -174 -102 0
-502 -175 -103 0
-503 -176 -104 0
-504 -177 -105 0
-502 -178 -106 0
-503 -179 -107 0
-504 -180 -108 0
-502 -181 -109 0
-503 -182 -110 0
-504 -183 -111 0
-502 -184 -112 0
-503 -185 -113 0
-504 -186 -114 0
-502 -187 -115 0
-503 -188 -116 0
-504 -189 -117 0
-502 -190 -118 0
-503 -191 -119 0
-504 -192 -120 0
-502 -193 -121 0
-503 -194 -122 0
-504 -195 -123 0
-502 -196 -124 0
-503 -197 -125 0
-504 -198 -126 0
-502 -199 -127 0
-503 -200 -128 0
-504 -201 -129 0
-502 -202 -130 0
-503 -203 -131 0
-504 -204 -132 0
-502 -205 -133 0
-503 -206 -134 0
-504 -207 -135 0
-502 -208 -136 0
-503 -209 -137 0
-504 -210 -138 0
-502 -211 -139 0
-503 -212 -140 0
-504 -213 -141 0
-502 -214 -142 0
-503 -215 -143 0
-504 -216 -144 0
-502 -217 -145 0
-503 -218 -146 0
-504 -219 -147 0
-502 -220 -148 0
-503 -221 -149 0
-504 -222 -150 0
-502 -223 -151 0
-503 -224 -152 0
-504 -225 -153 0
-502 -226 -154 0
-503 -227 -155 0
-504 -228 -156 0
-502 -229 -157 0
-503 -230 -158 0
-504 -231 -159 0
-502 -232 -160 0
-503 -233 -161 0
-504 -234 -162 0
-502 -235 -163 0
-503 -236 -164 0
-504 -237 -165 0
-502 -238 -166 0
-503 -239 -167 0
-504 -240 -168 0
-502 -241 -169 0
-503 -242 -170 0
-504 -243 -171 0
-502 -244 -172 0
-503 -245 -173 0
-504 -246 -174 0
-502 -247 -175 0
-503 -248 -176 0
-504 -249 -177 0
-502 -250 -178 0
-503 -251 -179 0
-504 -252 -180 0
-502 -253 -181 0
-503 -254 -182 0
-504 -255 -183 0
-502 -256 -184 0
-503 -257 -185 0
-504 -258 -186 0
-502 -259 -187 0
-503 -260 -188 0
-504 -261 -189 0
-502 -262 -190 0
-503 -263 -191 0
-504 -264 -192 0
-502 -265 -193 0
-503 -266 -194 0
-504 -267 -195 0
-502 -268 -196 0
-503 -269 -197 0
-504 -270 -198 0
-502 -271 -199 0
-503 -272 -200 0
-504 -273 -201 0
-502 -274 -202 0
-503 -275 -203 0
-504 -276 -204 0
-502 -277 -205 0
-503 -278 -206 0
-504 -279 -207 0
-502 -280 -208 0
-503 -281 -209 0
-504 -282 -210 0
-502 -283 -211 0
-503 -284 -212 0
-504 -285 -213 0
-502 -286 -214 0
-503 -287 -215 0
-504 -288 -216 0
-502 -289 -217 0
-503 -290 -218 0
-504 -291 -219 0
-502 -292 -220 0
-503 -293 -221 0
-504 -294 -222 0
-502 -295 -223 0
-503 -296 -224 0
-504 -297 -225 0
-502 -298 -226 0
-503 -299 -227 0
-504 -300 -228 0
-502 -301 -229 0
-503 -302 -230 0
-504 -303 -231 0
-502 -304 -232 0
-503 -305 -233 0
-504 -306 -234 0
-502 -307 -235 0
-503 -308 -236 0
-504 -309 -237 0
-502 -310 -238 0
-503 -311 -239 0
-504 -312 -240 0
-502 -313 -241 0
-503 -314 -242 0
-504 -315 -243 0
-502 -316 -244 0
-503 -317 -245 0
-504 -318 -246 0
-502 -319 -247 0
-503 -320 -248 0
-504 -321 -249 0
-502 -322 -250 0
-503 -323 -251 0
-504 -324 -252 0
-502 -325 -253 0
-503 -326 -254 0
-504 -327 -255 0
-502 -328 -256 0
-503 -329 -257 0
-504 -330 -258 0
-502 -331 -259 0
-503 -332 -260 0
-504 -333 -261 0
-502 -334 -262 0
-503 -335 -263 0
-504 -336 -264 0
-502 -337 -265 0
-503 -338 -266 0
-504 -339 -267 0
-502 -340 -268 0
-503 -341 -269 0
-504 -342 -270 0
-502 -343 -271 0
-503 -344 -272 0
-504 -345 -273 0
-502 -346 -274 0
-503 -347 -275 0
-504 -348 -276 0
-502 -349 -277 0
-503 -350 -278 0
-504 -351 -279 0
-502 -352 -280 0
-503 -353 -281 0
-504 -354 -282 0
-502 -355 -283 0
-503 -356 -284 0
-504 -357 -285 0
-502 -358 -286 0
-503 -359 -287 0
-504 -360 -288 0
-502 -361 -289 0
-503 -362 -290 0
-504 -363 -291 0
-502 -364 -292 0
-503 -365 -293 0
-504 -366 -294 0
-502 -367 -295 0
-503 -368 -296 0
-504 -369 -297 0
-502 -370 -298 0
-503 -371 -299 0
-504 -372 -300 0
-502 -373 -301 0
-503 -374 -302 0
-504 -375 -303 0
-502 -376 -304 0
-503 -377 -305 0
-504 -378 -306 0
-502 -379 -307 0
-503 -380 -308 0
-504 -381 -309 0
-502 -382 -310 0
-503 -383 -311 0
-504 -384 -312 0
-502 -385 -313 0
-503 -386 -314 0
-504 -387 -315 0
-502 -388 -316 0
-503 -389 -317 0
-504 -390 -318 0
-502 -391 -319 0
-503 -392 -320 0
-504 -393 -321 0
-502 -394 -322 0
-503 -395 -323 0
-504 -396 -324 0
-502 -397 -325 0
-503 -398 -326 0
-504 -399 -327 0
-502 -400 -328 0
-503 -401 -329 0
-504 -402 -330 0
-502 -403 -331 0
-503 -404 -332 0
-504 -405 -333 0
-502 -406 -334 0
-503 -407 -335 0
-504 -408 -336 0
-502 -409 -337 0
-503 -410 -338 0
-504 -411 -339 0
-502 -412 -340 0
-503 -413 -341 0
-504 -414 -342 0
-502 -415 -343 0
-503 -416 -344 0
-504 -417 -345 0
-502 -418 -346 0
-503 -419 -347 0
-504 -420 -348 0
-502 -421 -349 0
-503 -422 -350 0
-504 -423 -351 0
-502 -424 -352 0
-503 -425 -353 0
-504 -426 -354 0
-502 -427 -355 0
-503 -428 -356 0
-504 -429 -357 0
-502 -430 -358 0
-503 -431 -359 0
-504 -432 -360 0
-502 -433 -361 0
-503 -434 -362 0
-504 -435 -363 0
-502 -436 -364 0
-503 -437 -365 0
-504 -438 -366 0
-502 -439 -367 0
-503 -440 -368 0
-504 -441 -369 0
-502 -442 -370 0
-503 -443 -371 0
-504 -444 -372 0
-502 -445 -373 0
-503 -446 -374 0
-504 -447 -375 0
-502 -448 -376 0
-503 -449 -377 0
-504 -450 -378 0
-502 -451 -379 0
-503 -452 -380 0
-504 -453 -381 0
-502 -454 -382 0
-503 -455 -383 0
-504 -456 -384 0
-502 -457 -385 0
-503 -458 -386 0
-504 -459 -387 0
-502 -460 -388 0
-503 -461 -389 0
-504 -462 -390 0
-502 -463 -391 0
-503 -464 -392 0
-504 -465 -393 0
-502 -466 -394 0
-503 -467 -395 0
-504 -468 -396 0
-502 -469 -397 0
-503 -470 -398 0
-504 -471 -399 0
-502 -472 -400 0
-503 -473 -401 0
-504 -474 -402 0
-502 -475 -403 0
-503 -476 -404 0
-504 -477 -405 0
-502 -478 -406 0
-503 -479 -407 0
-504 -480 -408 0
-502 -481 -409 0
-503 -482 -410 0
-504 -483 -411 0
-502 -484 -412 0
-503 -485 -413 0
-504 -486 -414 0
-502 -487 -415 0
-503 -488 -416 0
-504 -489 -417 0
-502 -490 -418 0
-503 -491 -419 0
-504 -492 -420 0
-502 -493 -421 0
-503 -494 -422 0
-504 -495 -423 0
-502 -496 -424 0
-503 -497 -425 0
-504 -498 -426 0
-502 -499 -427 0
-503 -500 -428 0
-504 -501 -429 0
-502 -430 0
-503 -431 0
-504 -432 0
-505 -502 -433 0
-506 -503 -434 0
-507 -504 -435 0
-508 -502 -436 0
-509 -503 -437 0
-510 -504 -438 0
-511 -502 -439 0
-512 -503 -440 0
-513 -504 -441 0
-514 -502 -442 0
-515 -503 -443 0
-516 -504 -444 0
-517 -502 -445 0
-518 -503 -446 0
-519 -504 -447 0
-520 -502 -448 0
-521 -503 -449 0
-522 -504 -450 0
-523 -502 -451 0
-524 -503 -452 0
-525 -504 -453 0
-526 -502 -454 0
-527 -503 -455 0
-528 -504 -456 0
-529 -502 -457 0
-530 -503 -458 0
-531 -504 -459 0
-532 -502 -460 0
-533 -503 -461 0
-534 -504 -462 0
-535 -502 -463 0
-536 -503 -464 0
-537 -504 -465 0
-538 -502 -466 0
-539 -503 -467 0
-540 -504 -468 0
-541 -502 -469 0
-542 -503 -470 0
-543 -504 -471 0
-544 -502 -472 0
-545 -503 -473 0
-546 -504 -474 0
-547 -502 -475 0
-548 -503 -476 0
-549 -504 -477 0
-550 -502 -478 0
-551 -503 -479 0
-552 -504 -480 0
-553 -502 -481 0
-554 -503 -482 0
-555 -504 -483 0
-556 -502 -484 0
-557 -503 -485 0
-558 -504 -486 0
-559 -502 -487 0
-560 -503 -488 0
-561 -504 -489 0
-562 -502 -490 0
-563 -503 -491 0
-564 -504 -492 0
-565 -502 -493 0
-566 -503 -494 0
-567 -504 -495 0
-568 -502 -496 0
-569 -503 -497 0
-570 -504 -498 0
-571 -502 -499 0
-572 -503 -500 0
-573 -504 -501 0
-574 -502 0
-575 -503 0
-576 -504 0
-577 -505 -502 0
-578 -506 -503 0
-579 -507 -504 0
-580 -508 -502 0
-581 -509 -503 0
-582 -510 -504 0
-583 -511 -502 0
-584 -512 -503 0
-585 -513 -504 0
-586 -514 -502 0
-587 -515 -503 0
-588 -516 -504 0
-589 -517 -502 0
-590 -518 -503 0
-591 -519 -504 0
-592 -520 -502 0
-593 -521 -503 0
-594 -522 -504 0
-595 -523 -502 0
-596 -524 -503 0
-597 -525 -504 0
-598 -526 -502 0
-599 -527 -503 0
-600 -528 -504 0
-601 -529 -502 0
-602 -530 -503 0
-603 -531 -504 0
-604 -532 -502 0
-605 -533 -503 0
-606 -534 -504 0
-607 -535 -502 0
-608 -536 -503 0
-609 -537 -504 0
-610 -538 -502 0
-611 -539 -503 0
-612 -540 -504 0
-613 -541 -502 0
-614 -542 -503 0
-615 -543 -504 0
-616 -544 -502 0
-617 -545 -503 0
-618 -546 -504 0
-619 -547 -502 0
-620 -548 -503 0
-621 -549 -504 0
-622 -550 -502 0
-623 -551 -503 0
-624 -552 -504 0
-625 -553 -502 0
-626 -554 -503 0
-627 -555 -504 0
-628 -556 -502 0
-629 -557 -503 0
-630 -558 -504 0
-631 -559 -502 0
-632 -560 -503 0
-633 -561 -504 0
-634 -562 -502 0
-635 -563 -503 0
-636 -564 -504 0
-637 -565 -502 0
-638 -566 -503 0
-639 -567 -504 0
-640 -568 -502 0
-641 -569 -503 0
-642 -570 -504 0
-643 -571 -502 0
-644 -572 -503 0
-645 -573 -504 0
-646 -574 -502 0
-647 -575 -503 0
-648 -576 -504 0
-649 -577 -502 0
-650 -578 -503 0
-651 -579 -504 0
-652 -580 -502 0
-653 -581 -503 0
-654 -582 -504 0
-655 -583 -502 0
-656 -584 -503 0
-657 -585 -504 0
-658 -586 -502 0
-659 -587 -503 0
-660 -588 -504 0
-661 -589 -502 0
-662 -590 -503 0
-663 -591 -504 0
-664 -592 -502 0
-665 -593 -503 0
-666 -594 -504 0
-667 -595 -502 0
-668 -596 -503 0
-669 -597 -504 0
-670 -598 -502 0
-671 -599 -503 0
-672 -600 -504 0
-673 -601 -502 0
-674 -602 -503 0
-675 -603 -504 0
-676 -604 -502 0
-677 -605 -503 0
-678 -606 -504 0
-679 -607 -502 0
-680 -608 -503 0
-681 -609 -504 0
-682 -610 -502 0
-683 -611 -503 0
-684 -612 -504 0
-685 -613 -502 0
-686 -614 -503 0
-687 -615 -504 0
-688 -616 -502 0
-689 -617 -503 0
-690 -618 -504 0
-691 -619 -502 0
-692 -620 -503 0
-693 -621 -504 0
-694 -622 -502 0
-695 -623 -503 0
-696 -624 -504 0
-697 -625 -502 0
-698 -626 -503 0
-699 -627 -504 0
-700 -628 -502 0
-701 -629 -503 0
-702 -630 -504 0
-703 -631 -502 0
-704 -632 -503 0
-705 -633 -504 0
-706 -634 -502 0
-707 -635 -503 0
-708 -636 -504 0
-709 -637 -502 0
-710 -638 -503 0
-711 -639 -504 0
-712 -640 -502 0
-713 -641 -503 0
-714 -642 -504 0
-715 -643 -502 0
-716 -644 -503 0
-717 -645 -504 0
-718 -646 -502 0
-719 -647 -503 0
-720 -648 -504 0
-721 -649 -502 0
-722 -650 -503 0
-723 -651 -504 0
-724 -652 -502 0
-725 -653 -503 0
-726 -654 -504 0
-727 -655 -502 0
-728 -656 -503 0
-729 -657 -504 0
-730 -658 -502 0
-731 -659 -503 0
-732 -660 -504 0
-733 -661 -502 0
-734 -662 -503 0
-735 -663 -504 0
-736 -664 -502 0
-737 -665 -503 0
-738 -666 -504 0
-739 -667 -502 0
-740 -668 -503 0
-741 -669 -504 0
-742 -670 -502 0
-743 -671 -503 0
-744 -672 -504 0
-745 -673 -502 0
-746 -674 -503 0
-747 -675 -504 0
-748 -676 -502 0
-749 -677 -503 0
-750 -678 -504 0
-751 -679 -502 0
-752 -680 -503 0
-753 -681 -504 0
-754 -682 -502 0
-755 -683 -503 0
-756 -684 -504 0
-757 -685 -502 0
-758 -686 -503 0
-759 -687 -504 0
-760 -688 -502 0
-761 -689 -503 0
-762 -690 -504 0
-763 -691 -502 0
-764 -692 -503 0
-765 -693 -504 0
-766 -694 -502 0
-767 -695 -503 0
-768 -696 -504 0
-769 -697 -502 0
-770 -698 -503 0
-771 -699 -504 0
-772 -700 -502 0
-773 -701 -503 0
-774 -702 -504 0
-775 -703 -502 0
-776 -704 -503 0
-777 -705 -504 0
-778 -706 -502 0
-779 -707 -503 0
-780 -708 -504 0
-781 -709 -502 0
-782 -710 -503 0
-783 -711 -504 0
-784 -712 -502 0
-785 -713 -503 0
-786 -714 -504 0
-787 -715 -502 0
-788 -716 -503 0
-789 -717 -504 0
-790 -718 -502 0
-791 -719 -503 0
-792 -720 -504 0
-793 -721 -502 0
-794 -722 -503 0
-795 -723 -504 0
-796 -724 -502 0
-797 -725 -503 0
-798 -726 -504 0
-799 -727 -502 0
-800 -728 -503 0
-801 -729 -504 0
-802 -730 -502 0
-803 -731 -503 0
-804 -732 -504 0
-805 -733 -502 0
-806 -734 -503 0
-807 -735 -504 0
-808 -736 -502 0
-809 -737 -503 0
-810 -738 -504 0
-811 -739 -502 0
-812 -740 -503 0
-813 -741 -504 0
-814 -742 -502 0
-815 -743 -503 0
-816 -744 -504 0
-817 -745 -502 0
-818 -746 -503 0
-819 -747 -504 0
-820 -748 -502 0
-821 -749 -503 0
-822 -750 -504 0
-823 -751 -502 0
-824 -752 -503 0
-825 -753 -504 0
-826 -754 -502 0
-827 -755 -503 0
-828 -756 -504 0
-829 -757 -502 0
-830 -758 -503 0
-831 -759 -504 0
-832 -760 -502 0
-833 -761 -503 0
-834 -762 -504 0
-835 -763 -502 0
-836 -764 -503 0
-837 -765 -504 0
-838 -766 -502 0
-839 -767 -503 0
-840 -768 -504 0
-841 -769 -502 0
-842 -770 -503 0
-843 -771 -504 0
-844 -772 -502 0
-845 -773 -503 0
-846 -774 -504 0
-847 -775 -502 0
-848 -776 -503 0
-849 -777 -504 0
-850 -778 -502 0
-851 -779 -503 0
-852 -780 -504 0
-853 -781 -502 0
-854 -782 -503 0
-855 -783 -504 0
-856 -784 -502 0
-857 -785 -503 0
-858 -786 -504 0
-859 -787 -502 0
-860 -788 -503 0
-861 -789 -504 0
-862 -790 -502 0
-863 -791 -503 0
-864 -792 -504 0
-865 -793 -502 0
-866 -794 -503 0
-867 -795 -504 0
-868 -796 -502 0
-869 -797 -503 0
-870 -798 -504 0
-871 -799 -502 0
-872 -800 -503 0
-873 -801 -504 0
-874 -802 -502 0
-875 -803 -503 0
-876 -804 -504 0
-877 -805 -502 0
-878 -806 -503 0
-879 -807 -504 0
-880 -808 -502 0
-881 -809 -503 0
-882 -810 -504 0
-883 -811 -502 0
-884 -812 -503 0
-885 -813 -504 0
-886 -814 -502 0
-887 -815 -503 0
-888 -816 -504 0
-889 -817 -502 0
-890 -818 -503 0
-891 -819 -504 0
-892 -820 -502 0
-893 -821 -503 0
-894 -822 -504 0
-895 -823 -502 0
-896 -824 -503 0
-897 -825 -504 0
-898 -826 -502 0
-899 -827 -503 0
-900 -828 -504 0
-901 -829 -502 0
-902 -830 -503 0
-903 -831 -504 0
-904 -832 -502 0
-905 -833 -503 0
-906 -834 -504 0
-907 -835 -502 0
-908 -836 -503 0
-909 -837 -504 0
-910 -838 -502 0
-911 -839 -503 0
-912 -840 -504 0
-913 -841 -502 0
-914 -842 -503 0
-915 -843 -504 0
-916 -844 -502 0
-917 -845 -503 0
-918 -846 -504 0
-919 -847 -502 0
-920 -848 -503 0
-921 -849 -504 0
-922 -850 -502 0
-923 -851 -503 0
-924 -852 -504 0
-925 -853 -502 0
-926 -854 -503 0
-927 -855 -504 0
-928 -856 -502 0
-929 -857 -503 0
-930 -858 -504 0
-931 -859 -502 0
-932 -860 -503 0
-933 -861 -504 0
-934 -862 -502 0
-935 -863 -503 0
-936 -864 -504 0
-937 -865 -502 0
-938 -866 -503 0
-939 -867 -504 0
-940 -868 -502 0
-941 -869 -503 0
-942 -870 -504 0
-943 -871 -502 0
-944 -872 -503 0
-945 -873 -504 0
-946 -874 -502 0
-947 -875 -503 0
-948 -876 -504 0
-949 -877 -502 0
-950 -878 -503 0
-951 -879 -504 0
-952 -880 -502 0
-953 -881 -503 0
-954 -882 -504 0
-955 -883 -502 0
-956 -884 -503 0
-957 -885 -504 0
-958 -886 -502 0
-959 -887 -503 0
-960 -888 -504 0
-961 -889 -502 0
-962 -890 -503 0
-963 -891 -504 0
-964 -892 -502 0
-965 -893 -503 0
-966 -894 -504 0
-967 -895 -502 0
-968 -896 -503 0
-969 -897 -504 0
-970 -898 -502 0
-971 -899 -503 0
-972 -900 -504 0
-973 -901 -502 0
-974 -902 -503 0
-975 -903 -504 0
-976 -904 -502 0
-977 -905 -503 0
-978 -906 -504 0
-979 -907 -502 0
-980 -908 -503 0
-981 -909 -504 0
-982 -910 -502 0
-983 -911 -503 0
-984 -912 -504 0
-985 -913 -502 0
-986 -914 -503 0
-987 -915 -504 0
-988 -916 -502 0
-989 -917 -503 0
-990 -918 -504 0
-991 -919 -502 0
-992 -920 -503 0
-993 -921 -504 0
-994 -922 -502 0
-995 -923 -503 0
-996 -924 -504 0
-997 -925 -502 0
-998 -926 -503 0
-999 -927 -504 0
-1000 -928 -502 0
-1001 -929 -503 0
-1002 -930 -504 0
-1003 -931 -502 0
-1004 -932 -503 0
-1005 -933 -504 0
-1006 -934 -502 0
-1007 -935 -503 0
-1008 -936 -504 0
-1009 -937 -502 0
-1010 -938 -503 0
-1011 -939 -504 0
-1012 -940 -502 0
-1013 -941 -503 0
-1014 -942 -504 0
-1015 -943 -502 0
-1016 -944 -503 0
-1017 -945 -504 0
-1018 -946 -502 0
-1019 -947 -503 0
-1020 -948 -504 0
-1021 -949 -502 0
-1022 -950 -503 0
-1023 -951 -504 0
-1024 -952 -502 0
-1025 -953 -503 0
-1026 -954 -504 0
-1027 -955 -502 0
-1028 -956 -503 0
-1029 -957 -504 0
-523 -76 -1 0
-524 -77 -2 0
-525 -78 -3 0
-523 -79 -4 0
-524 -80 -5 0
-525 -81 -6 0
-523 -82 -7 0
-524 -83 -8 0
-525 -84 -9 0
-523 -85 -10 0
-524 -86 -11 0
-525 -87 -12 0
-523 -88 -13 0
-524 -89 -14 0
-525 -90 -15 0
-523 -91 -16 0
-524 -92 -17 0
-525 -93 -18 0
-523 -94 -19 0
-524 -95 -20 0
-525 -96 -21 0
-523 -97 -22 0
-524 -98 -23 0
-525 -99 -24 0
-523 -100 -25 0
-524 -101 -26 0
-525 -102 -27 0
-523 -103 -28 0
-524 -104 -29 0
-525 -105 -30 0
-523 -106 -31 0
-524 -107 -32 0
-525 -108 -33 0
-523 -109 -34 0
-524 -110 -35 0
-525 -111 -36 0
-523 -112 -37 0
-524 -113 -38 0
-525 -114 -39 0
-523 -115 -40 0
-524 -116 -41 0
-525 -117 -42 0
-523 -118 -43 0
-524 -119 -44 0
-525 -120 -45 0
-523 -121 -46 0
-524 -122 -47 0
-525 -123 -48 0
-523 -124 -49 0
-524 -125 -50 0
-525 -126 -51 0
-523 -127 -52 0
-524 -128 -53 0
-525 -129 -54 0
-523 -130 -55 0
-524 -131 -56 0
-525 -132 -57 0
-523 -133 -58 0
-524 -134 -59 0
-525 -135 -60 0
-523 -136 -61 0
-524 -137 -62 0
-525 -138 -63 0
-523 -139 -64 0
-524 -140 -65 0
-525 -141 -66 0
-523 -142 -67 0
-524 -143 -68 0
-525 -144 -69 0
-523 -145 -70 0
-524 -146 -71 0
-525 -147 -72 0
-523 -148 -73 0
-524 -149 -74 0
-525 -150 -75 0
-523 -151 -76 0
-524 -152 -77 0
-525 -153 -78 0
-523 -154 -79 0
-524 -155 -80 0
-525 -156 -81 0
-523 -157 -82 0
-524 -158 -83 0
-525 -159 -84 0
-523 -160 -85 0
-524 -161 -86 0
-525 -162 -87 0
-523 -163 -88 0
-524 -164 -89 0
-525 -165 -90 0
-523 -166 -91 0
-524 -167 -92 0
-525 -168 -93 0
-523 -169 -94 0
-524 -170 -95 0
-525 -171 -96 0
-523 -172 -97 0
-524 -173 -98 0
-525 -174 -99 0
-523 -175 -100 0
-524 -176 -101 0
-525 -177 -102 0
-523 -178 -103 0
-524 -179 -104 0
-525 -180 -105 0
-523 -181 -106 0
-524 -182 -107 0
-525 -183 -108 0
-523 -184 -109 0
-524 -185 -110 0
-525 -186 -111 0
-523 -187 -112 0
-524 -188 -113 0
-525 -189 -114 0
-523 -190 -115 0
-524 -191 -116 0
-525 -192 -117 0
-523 -193 -118 0
-524 -194 -119 0
-525 -195 -120 0
-523 -196 -121 0
-524 -197 -122 0
-525 -198 -123 0
-523 -199 -124 0
-524 -200 -125 0
-525 -201 -126 0
-523 -202 -127 0
-524 -203 -128 0
-525 -204 -129 0
-523 -205 -130 0
-524 -206 -131 0
-525 -207 -132 0
-523 -208 -133 0
-524 -209 -134 0
-525 -210 -135 0
-523 -211 -136 0
-524 -212 -137 0
-525 -213 -138 0
-523 -214 -139 0
-524 -215 -140 0
-525 -216 -141 0
-523 -217 -142 0
-524 -218 -143 0
-525 -219 -144 0
-523 -220 -145 0
-524 -221 -146 0
-525 -222 -147 0
-523 -223 -148 0
-524 -224 -149 0
-525 -225 -150 0
-523 -226 -151 0
-524 -227 -152 0
-525 -228 -153 0
-523 -229 -154 0
-524 -230 -155 0
-525 -231 -156 0
-523 -232 -157 0
-524 -233 -158 0
-525 -234 -159 0
-523 -235 -160 0
-524 -236 -161 0
-525 -237 -162 0
-523 -238 -163 0
-524 -239 -164 0
-525 -240 -165 0
-523 -241 -166 0
-524 -242 -167 0
-525 -243 -168 0
-523 -244 -169 0
-524 -245 -170 0
-525 -246 -171 0
-523 -247 -172 0
-524 -248 -173 0
-525 -249 -174 0
-523 -250 -175 0
-524 -251 -176 0
-525 -252 -177 0
-523 -253 -178 0
-524 -254 -179 0
-525 -255 -180 0
-523 -256 -181 0
-524 -257 -182 0
-525 -258 -183 0
-523 -259 -184 0
-524 -260 -185 0
-525 -261 -186 0
-523 -262 -187 0
-524 -263 -188 0
-525 -264 -189 0
-523 -265 -190 0
-524 -266 -191 0
-525 -267 -192 0
-523 -268 -193 0
-524 -269 -194 0
-525 -270 -195 0
-523 -271 -196 0
-524 -272 -197 0
-525 -273 -198 0
-523 -274 -199 0
-524 -275 -200 0
-525 -276 -201 0
-523 -277 -202 0
-524 -278 -203 0
-525 -279 -204 0
-523 -280 -205 0
-524 -281 -206 0
-525 -282 -207 0
-523 -283 -208 0
-524 -284 -209 0
-525 -285 -210 0
-523 -286 -211 0
-524 -287 -212 0
-525 -288 -213 0
-523 -289 -214 0
-524 -290 -215 0
-525 -291 -216 0
-523 -292 -217 0
-524 -293 -218 0
-525 -294 -219 0
-523 -295 -220 0
-524 -296 -221 0
-525 -297 -222 0
-523 -298 -223 0
-524 -299 -224 0
-525 -300 -225 0
-523 -301 -226 0
-524 -302 -227 0
-525 -303 -228 0
-523 -304 -229 0
-524 -305 -230 0
-525 -306 -231 0
-523 -307 -232 0
-524 -308 -233 0
-525 -309 -234 0
-523 -310 -235 0
-524 -311 -236 0
-525 -312 -237 0
-523 -313 -238 0
-524 -314 -239 0
-525 -315 -240 0
-523 -316 -241 0
-524 -317 -242 0
-525 -318 -243 0
-523 -319 -244 0
-524 -320 -245 0
-525 -321 -246 0
-523 -322 -247 0
-524 -323 -248 0
-525 -324 -249 0
-523 -325 -250 0
-524 -326 -251 0
-525 -327 -252 0
-523 -328 -253 0
-524 -329 -254 0
-525 -330 -255 0
-523 -331 -256 0
-524 -332 -257 0
-525 -333 -258 0
-523 -334 -259 0
-524 -335 -260 0
-525 -336 -261 0
-523 -337 -262 0
-524 -338 -263 0
-525 -339 -264 0
-523 -340 -265 0
-524 -341 -266 0
-525 -342 -267 0
-523 -343 -268 0
-524 -344 -269 0
-525 -345 -270 0
-523 -346 -271 0
-524 -347 -272 0
-525 -348 -273 0
-523 -349 -274 0
-524 -350 -275 0
-525 -351 -276 0
-523 -352 -277 0
-524 -353 -278 0
-525 -354 -279 0
-523 -355 -280 0
-524 -356 -281 0
-525 -357 -282 0
-523 -358 -283 0
-524 -359 -284 0
-525 -360 -285 0
-523 -361 -286 0
-524 -362 -287 0
-525 -363 -288 0
-523 -364 -289 0
-524 -365 -290 0
-525 -366 -291 0
-523 -367 -292 0
-524 -368 -293 0
-525 -369 -294 0
-523 -370 -295 0
-524 -371 -296 0
-525 -372 -297 0
-523 -373 -298 0
-524 -374 -299 0
-525 -375 -300 0
-523 -376 -301 0
-524 -377 -302 0
-525 -378 -303 0
-523 -379 -304 0
-524 -380 -305 0
-525 -381 -306 0
-523 -382 -307 0
-524 -383 -308 0
-525 -384 -309 0
-523 -385 -310 0
-524 -386 -311 0
-525 -387 -312 0
-523 -388 -313 0
-524 -389 -314 0
-525 -390 -315 0
-523 -391 -316 0
-524 -392 -317 0
-525 -393 -318 0
-523 -394 -319 0
-524 -395 -320 0
-525 -396 -321 0
-523 -397 -322 0
-524 -398 -323 0
-525 -399 -324 0
-523 -400 -325 0
-524 -401 -326 0
-525 -402 -327 0
-523 -403 -328 0
-524 -404 -329 0
-525 -405 -330 0
-523 -406 -331 0
-524 -407 -332 0
-525 -408 -333 0
-523 -409 -334 0
-524 -410 -335 0
-525 -411 -336 0
-523 -412 -337 0
-524 -413 -338 0
-525 -414 -339 0
-523 -415 -340 0
-524 -416 -341 0
-525 -417 -342 0
-523 -418 -343 0
-524 -419 -344 0
-525 -420 -345 0
-523 -421 -346 0
-524 -422 -347 0
-525 -423 -348 0
-523 -424 -349 0
-524 -425 -350 0
-525 -426 -351 0
-523 -427 -352 0
-524 -428 -353 0
-525 -429 -354 0
-523 -430 -355 0
-524 -431 -356 0
-525 -432 -357 0
-523 -433 -358 0
-524 -434 -359 0
-525 -435 -360 0
-523 -436 -361 0
-524 -437 -362 0
-525 -438 -363 0
-523 -439 -364 0
-524 -440 -365 0
-525 -441 -366 0
-523 -442 -367 0
-524 -443 -368 0
-525 -444 -369 0
-523 -445 -370 0
-524 -446 -371 0
-525 -447 -372 0
-523 -448 -373 0
-524 -449 -374 0
-525 -450 -375 0
-523 -451 -376 0
-524 -452 -377 0
-525 -453 -378 0
-523 -454 -379 0
-524 -455 -380 0
-525 -456 -381 0
-523 -457 -382 0
-524 -458 -383 0
-525 -459 -384 0
-523 -460 -385 0
-524 -461 -386 0
-525 -462 -387 0
-523 -463 -388 0
-524 -464 -389 0
-525 -465 -390 0
-523 -466 -391 0
-524 -467 -392 0
-525 -468 -393 0
-523 -469 -394 0
-524 -470 -395 0
-525 -471 -396 0
-523 -472 -397 0
-524 -473 -398 0
-525 -474 -399 0
-523 -475 -400 0
-524 -476 -401 0
-525 -477 -402 0
-523 -478 -403 0
-524 -479 -404 0
-525 -480 -405 0
-523 -481 -406 0
-524 -482 -407 0
-525 -483 -408 0
-523 -484 -409 0
-524 -485 -410 0
-525 -486 -411 0
-523 -487 -412 0
-524 -488 -413 0
-525 -489 -414 0
-523 -490 -415 0
-524 -491 -416 0
-525 -492 -417 0
-523 -493 -418 0
-524 -494 -419 0
-525 -495 -420 0
-523 -496 -421 0
-524 -497 -422 0
-525 -498 -423 0
-523 -499 -424 0
-524 -500 -425 0
-525 -501 -426 0
-523 -502 -427 0
-524 -503 -428 0
-525 -504 -429 0
-523 -505 -430 0
-524 -506 -431 0
-525 -507 -432 0
-523 -508 -433 0
-524 -509 -434 0
-525 -510 -435 0
-523 -511 -436 0
-524 -512 -437 0
-525 -513 -438 0
-523 -514 -439 0
-524 -515 -440 0
-525 -516 -441 0
-523 -517 -442 0
-524 -518 -443 0
-525 -519 -444 0
-523 -520 -445 0
-524 -521 -446 0
-525 -522 -447 0
-523 -448 0
-524 -449 0
-525 -450 0
-526 -523 -451 0
-527 -524 -452 0
-528 -525 -453 0
-529 -523 -454 0
-530 -524 -455 0
-531 -525 -456 0
-532 -523 -457 0
-533 -524 -458 0
-534 -525 -459 0
-535 -523 -460 0
-536 -524 -461 0
-537 -525 -462 0
-538 -523 -463 0
-539 -524 -464 0
-540 -525 -465 0
-541 -523 -466 0
-542 -524 -467 0
-543 -525 -468 0
-544 -523 -469 0
-545 -524 -470 0
-546 -525 -471 0
-547 -523 -472 0
-548 -524 -473 0
-549 -525 -474 0
-550 -523 -475 0
-551 -524 -476 0
-552 -525 -477 0
-553 -523 -478 0
-554 -524 -479 0
-555 -525 -480 0
-556 -523 -481 0
-557 -524 -482 0
-558 -525 -483 0
-559 -523 -484 0
-560 -524 -485 0
-561 -525 -486 0
-562 -523 -487 0
-563 -524 -488 0
-564 -525 -489 0
-565 -523 -490 0
-566 -524 -491 0
-567 -525 -492 0
-568 -523 -493 0
-569 -524 -494 0
-570 -525 -495 0
-571 -523 -496 0
-572 -524 -497 0
-573 -525 -498 0
-574 -523 -499 0
-575 -524 -500 0
-576 -525 -501 0
-577 -523 -502 0
-578 -524 -503 0
-579 -525 -504 0
-580 -523 -505 0
-581 -524 -506 0
-582 -525 -507 0
-583 -523 -508 0
-584 -524 -509 0
-585 -525 -510 0
-586 -523 -511 0
-587 -524 -512 0
-588 -525 -513 0
-589 -523 -514 0
-590 -524 -515 0
-591 -525 -516 0
-592 -523 -517 0
-593 -524 -518 0
-594 -525 -519 0
-595 -523 -520 0
-596 -524 -521 0
-597 -525 -522 0
-598 -523 0
-599 -524 0
-600 -525 0
-601 -526 -523 0
-602 -527 -524 0
-603 -528 -525 0
-604 -529 -523 0
-605 -530 -524 0
-606 -531 -525 0
-607 -532 -523 0
-608 -533 -524 0
-609 -534 -525 0
-610 -535 -523 0
-611 -536 -524 0
-612 -537 -525 0
-613 -538 -523 0
-614 -539 -524 0
-615 -540 -525 0
-616 -541 -523 0
-617 -542 -524 0
-618 -543 -525 0
-619 -544 -523 0
-620 -545 -524 0
-621 -546 -525 0
-622 -547 -523 0
-623 -548 -524 0
-624 -549 -525 0
-625 -550 -523 0
-626 -551 -524 0
-627 -552 -525 0
-628 -553 -523 0
-629 -554 -524 0
-630 -555 -525 0
-631 -556 -523 0
-632 -557 -524 0
-633 -558 -525 0
-634 -559 -523 0
-635 -560 -524 0
-636 -561 -525 0
-637 -562 -523 0
-638 -563 -524 0
-639 -564 -525 0
-640 -565 -523 0
-641 -566 -524 0
-642 -567 -525 0
-643 -568 -523 0
-644 -569 -524 0
-645 -570 -525 0
-646 -571 -523 0
-647 -572 -524 0
-648 -573 -525 0
-649 -574 -523 0
-650 -575 -524 0
-651 -576 -525 0
-652 -577 -523 0
-653 -578 -524 0
-654 -579 -525 0
-655 -580 -523 0
-656 -581 -524 0
-657 -582 -525 0
-658 -583 -523 0
-659 -584 -524 0
-660 -585 -525 0
-661 -586 -523 0
-662 -587 -524 0
-663 -588 -525 0
-664 -589 -523 0
-665 -590 -524 0
-666 -591 -525 0
-667 -592 -523 0
-668 -593 -524 0
-669 -594 -525 0
-670 -595 -523 0
-671 -596 -524 0
-672 -597 -525 0
-673 -598 -523 0
-674 -599 -524 0
-675 -600 -525 0
-676 -601 -523 0
-677 -602 -524 0
-678 -603 -525 0
-679 -604 -523 0
-680 -605 -524 0
-681 -606 -525 0
-682 -607 -523 0
-683 -608 -524 0
-684 -609 -525 0
-685 -610 -523 0
-686 -611 -524 0
-687 -612 -525 0
-688 -613 -523 0
-689 -614 -524 0
-690 -615 -525 0
-691 -616 -523 0
-692 -617 -524 0
-693 -618 -525 0
-694 -619 -523 0
-695 -620 -524 0
-696 -621 -525 0
-697 -622 -523 0
-698 -623 -524 0
-699 -624 -525 0
-700 -625 -523 0
-701 -626 -524 0
-702 -627 -525 0
-703 -628 -523 0
-704 -629 -524 0
-705 -630 -525 0
-706 -631 -523 0
-707 -632 -524 0
-708 -633 -525 0
-709 -634 -523 0
-710 -635 -524 0
-711 -636 -525 0
-712 -637 -523 0
-713 -638 -524 0
-714 -639 -525 0
-715 -640 -523 0
-716 -641 -524 0
-717 -642 -525 0
-718 -643 -523 0
-719 -644 -524 0
-720 -645 -525 0
-721 -646 -523 0
-722 -647 -524 0
-723 -648 -525 0
-724 -649 -523 0
-725 -650 -524 0
-726 -651 -525 0
-727 -652 -523 0
-728 -653 -524 0
-729 -654 -525 0
-730 -655 -523 0
-731 -656 -524 0
-732 -657 -525 0
-733 -658 -523 0
-734 -659 -524 0
-735 -660 -525 0
-736 -661 -523 0
-737 -662 -524 0
-738 -663 -525 0
-739 -664 -523 0
-740 -665 -524 0
-741 -666 -525 0
-742 -667 -523 0
-743 -668 -524 0
-744 -669 -525 0
-745 -670 -523 0
-746 -671 -524 0
-747 -672 -525 0
-748 -673 -523 0
-749 -674 -524 0
-750 -675 -525 0
-751 -676 -523 0
-752 -677 -524 0
-753 -678 -525 0
-754 -679 -523 0
-755 -680 -524 0
-756 -681 -525 0
-757 -682 -523 0
-758 -683 -524 0
-759 -684 -525 0
-760 -685 -523 0
-761 -686 -524 0
-762 -687 -525 0
-763 -688 -523 0
-764 -689 -524 0
-765 -690 -525 0
-766 -691 -523 0
-767 -692 -524 0
-768 -693 -525 0
-769 -694 -523 0
-770 -695 -524 0
-771 -696 -525 0
-772 -697 -523 0
-773 -698 -524 0
-774 -699 -525 0
-775 -700 -523 0
-776 -701 -524 0
-777 -702 -525 0
-778 -703 -523 0
-779 -704 -524 0
-780 -705 -525 0
-781 -706 -523 0
-782 -707 -524 0
-783 -708 -525 0
-784 -709 -523 0
-785 -710 -524 0
-786 -711 -525 0
-787 -712 -523 0
-788 -713 -524 0
-789 -714 -525 0
-790 -715 -523 0
-791 -716 -524 0
-792 -717 -525 0
-793 -718 -523 0
-794 -719 -524 0
-795 -720 -525 0
-796 -721 -523 0
-797 -722 -524 0
-798 -723 -525 0
-799 -724 -523 0
-800 -725 -524 0
-801 -726 -525 0
-802 -727 -523 0
-803 -728 -524 0
-804 -729 -525 0
-805 -730 -523 0
-806 -731 -524 0
-807 -732 -525 0
-808 -733 -523 0
-809 -734 -524 0
-810 -735 -525 0
-811 -736 -523 0
-812 -737 -524 0
-813 -738 -525 0
-814 -739 -523 0
-815 -740 -524 0
-816 -741 -525 0
-817 -742 -523 0
-818 -743 -524 0
-819 -744 -525 0
-820 -745 -523 0
-821 -746 -524 0
-822 -747 -525 0
-823 -748 -523 0
-824 -749 -524 0
-825 -750 -525 0
-826 -751 -523 0
-827 -752 -524 0
-828 -753 -525 0
-829 -754 -523 0
-830 -755 -524 0
-831 -756 -525 0
-832 -757 -523 0
-833 -758 -524 0
-834 -759 -525 0
-835 -760 -523 0
-836 -761 -524 0
-837 -762 -525 0
-838 -763 -523 0
-839 -764 -524 0
-840 -765 -525 0
-841 -766 -523 0
-842 -767 -524 0
-843 -768 -525 0
-844 -769 -523 0
-845 -770 -524 0
-846 -771 -525 0
-847 -772 -523 0
-848 -773 -524 0
-849 -774 -525 0
-850 -775 -523 0
-851 -776 -524 0
-852 -777 -525 0
-853 -778 -523 0
-854 -779 -524 0
-855 -780 -525 0
-856 -781 -523 0
-857 -782 -524 0
-858 -783 -525 0
-859 -784 -523 0
-860 -785 -524 0
-861 -786 -525 0
-862 -787 -523 0
-863 -788 -524 0
-864 -789 -525 0
-865 -790 -523 0
-866 -791 -524 0
-867 -792 -525 0
-868 -793 -523 0
-869 -794 -524 0
-870 -795 -525 0
-871 -796 -523 0
-872 -797 -524 0
-873 -798 -525 0
-874 -799 -523 0
-875 -800 -524 0
-876 -801 -525 0
-877 -802 -523 0
-878 -803 -524 0
-879 -804 -525 0
-880 -805 -523 0
-881 -806 -524 0
-882 -807 -525 0
-883 -808 -523 0
-884 -809 -524 0
-885 -810 -525 0
-886 -811 -523 0
-887 -812 -524 0
-888 -813 -525 0
-889 -814 -523 0
-890 -815 -524 0
-891 -816 -525 0
-892 -817 -523 0
-893 -818 -524 0
-894 -819 -525 0
-895 -820 -523 0
-896 -821 -524 0
-897 -822 -525 0
-898 -823 -523 0
-899 -824 -524 0
-900 -825 -525 0
-901 -826 -523 0
-902 -827 -524 0
-903 -828 -525 0
-904 -829 -523 0
-905 -830 -524 0
-906 -831 -525 0
-907 -832 -523 0
-908 -833 -524 0
-909 -834 -525 0
-910 -835 -523 0
-911 -836 -524 0
-912 -837 -525 0
-913 -838 -523 0
-914 -839 -524 0
-915 -840 -525 0
-916 -841 -523 0
-917 -842 -524 0
-918 -843 -525 0
-919 -844 -523 0
-920 -845 -524 0
-921 -846 -525 0
-922 -847 -523 0
-923 -848 -524 0
-924 -849 -525 0
-925 -850 -523 0
-926 -851 -524 0
-927 -852 -525 0
-928 -853 -523 0
-929 -854 -524 0
-930 -855 -525 0
-931 -856 -523 0
-932 -857 -524 0
-933 -858 -525 0
-934 -859 -523 0
-935 -860 -524 0
-936 -861 -525 0
-937 -862 -523 0
-938 -863 -524 0
-939 -864 -525 0
-940 -865 -523 0
-941 -866 -524 0
-942 -867 -525 0
-943 -868 -523 0
-944 -869 -524 0
-945 -870 -525 0
-946 -871 -523 0
-947 -872 -524 0
-948 -873 -525 0
-949 -874 -523 0
-950 -875 -524 0
-951 -876 -525 0
-952 -877 -523 0
-953 -878 -524 0
-954 -879 -525 0
-955 -880 -523 0
-956 -881 -524 0
-957 -882 -525 0
-958 -883 -523 0
-959 -884 -524 0
-960 -885 -525 0
-961 -886 -523 0
-962 -887 -524 0
-963 -888 -525 0
-964 -889 -523 0
-965 -890 -524 0
-966 -891 -525 0
-967 -892 -523 0
-968 -893 -524 0
-969 -894 -525 0
-970 -895 -523 0
-971 -896 -524 0
-972 -897 -525 0
-973 -898 -523 0
-974 -899 -524 0
-975 -900 -525 0
-976 -901 -523 0
-977 -902 -524 0
-978 -903 -525 0
-979 -904 -523 0
-980 -905 -524 0
-981 -906 -525 0
-982 -907 -523 0
-983 -908 -524 0
-984 -909 -525 0
-985 -910 -523 0
-986 -911 -524 0
-987 -912 -525 0
-988 -913 -523 0
-989 -914 -524 0
-990 -915 -525 0
-991 -916 -523 0
-992 -917 -524 0
-993 -918 -525 0
-994 -919 -523 0
-995 -920 -524 0
-996 -921 -525 0
-997 -922 -523 0
-998 -923 -524 0
-999 -924 -525 0
-1000 -925 -523 0
-1001 -926 -524 0
-1002 -927 -525 0
-1003 -928 -523 0
-1004 -929 -524 0
-1005 -930 -525 0
-1006 -931 -523 0
-1007 -932 -524 0
-1008 -933 -525 0
-1009 -934 -523 0
-1010 -935 -524 0
-1011 -936 -525 0
-1012 -937 -523 0
-1013 -938 -524 0
-1014 -939 -525 0
-1015 -940 -523 0
-1016 -941 -524 0
-1017 -942 -525 0
-1018 -943 -523 0
-1019 -944 -524 0
-1020 -945 -525 0
-1021 -946 -523 0
-1022 -947 -524 0
-1023 -948 -525 0
-1024 -949 -523 0
-1025 -950 -524 0
-1026 -951 -525 0
-1027 -952 -523 0
-1028 -953 -524 0
-1029 -954 -525 0
-544 -79 -1 0
-545 -80 -2 0
-546 -81 -3 0
-544 -82 -4 0
-545 -83 -5 0
-546 -84 -6 0
-544 -85 -7 0
-545 -86 -8 0
-546 -87 -9 0
-544 -88 -10 0
-545 -89 -11 0
-546 -90 -12 0
-544 -91 -13 0
-545 -92 -14 0
-546 -93 -15 0
-544 -94 -16 0
-545 -95 -17 0
-546 -96 -18 0
-544 -97 -19 0
-545 -98 -20 0
-546 -99 -21 0
-544 -100 -22 0
-545 -101 -23 0
-546 -102 -24 0
-544 -103 -25 0
-545 -104 -26 0
-546 -105 -27 0
-544 -106 -28 0
-545 -107 -29 0
-546 -108 -30 0
-544 -109 -31 0
-545 -110 -32 0
-546 -111 -33 0
-544 -112 -34 0
-545 -113 -35 0
-546 -114 -36 0
-544 -115 -37 0
-545 -116 -38 0
-546 -117 -39 0
-544 -118 -40 0
-545 -119 -41 0
-546 -120 -42 0
-544 -121 -43 0
-545 -122 -44 0
-546 -123 -45 0
-544 -124 -46 0
-545 -125 -47 0
-546 -126 -48 0
-544 -127 -49 0
-545 -128 -50 0
-546 -129 -51 0
-544 -130 -52 0
-545 -131 -53 0
-546 -132 -54 0
-544 -133 -55 0
-545 -134 -56 0
-546 -135 -57 0
-544 -136 -58 0
-545 -137 -59 0
-546 -138 -60 0
-544 -139 -61 0
-545 -140 -62 0
-546 -141 -63 0
-544 -142 -64 0
-545 -143 -65 0
-546 -144 -66 0
-544 -145 -67 0
-545 -146 -68 0
-546 -147 -69 0
-544 -148 -70 0
-545 -149 -71 0
-546 -150 -72 0
-544 -151 -73 0
-545 -152 -74 0
-546 -153 -75 0
-544 -154 -76 0
-545 -155 -77 0
-546 -156 -78 0
-544 -157 -79 0
-545 -158 -80 0
-546 -159 -81 0
-544 -160 -82 0
-545 -161 -83 0
-546 -162 -84 0
-544 -163 -85 0
-545 -164 -86 0
-546 -165 -87 0
-544 -166 -88 0
-545 -167 -89 0
-546 -168 -90 0
-544 -169 -91 0
-545 -170 -92 0
-546 -171 -93 0
-544 -172 -94 0
-545 -173 -95 0
-546 -174 -96 0
-544 -175 -97 0
-545 -176 -98 0
-546 -177 -99 0
-544 -178 -100 0
-545 -179 -101 0
-546 -180 -102 0
-544 -181 -103 0
-545 -182 -104 0
-546 -183 -105 0
-544 -184 -106 0
-545 -185 -107 0
-546 -186 -108 0
-544 -187 -109 0
-545 -188 -110 0
-546 -189 -111 0
-544 -190 -112 0
-545 -191 -113 0
-546 -192 -114 0
-544 -193 -115 0
-545 -194 -116 0
-546 -195 -117 0
-544 -196 -118 0
-545 -197 -119 0
-546 -198 -120 0
-544 -199 -121 0
-545 -200 -122 0
-546 -201 -123 0
-544 -202 -124 0
-545 -203 -125 0
-546 -204 -126 0
-544 -205 -127 0
-545 -206 -128 0
-546 -207 -129 0
-544 -208 -130 0
-545 -209 -131 0
-546 -210 -132 0
-544 -211 -133 0
-545 -212 -134 0
-546 -213 -135 0
-544 -214 -136 0
-545 -215 -137 0
-546 -216 -138 0
-544 -217 -139 0
-545 -218 -140 0
-546 -219 -141 0
-544 -220 -142 0
-545 -221 -143 0
-546 -222 -144 0
-544 -223 -145 0
-545 -224 -146 0
-546 -225 -147 0
-544 -226 -148 0
-545 -227 -149 0
-546 -228 -150 0
-544 -229 -151 0
-545 -230 -152 0
-546 -231 -153 0
-544 -232 -154 0
-545 -233 -155 0
-546 -234 -156 0
-544 -235 -157 0
-545 -236 -158 0
-546 -237 -159 0
-544 -238 -160 0
-545 -239 -161 0
-546 -240 -162 0
-544 -241 -163 0
-545 -242 -164 0
-546 -243 -165 0
-544 -244 -166 0
-545 -245 -167 0
-546 -246 -168 0
-544 -247 -169 0
-545 -248 -170 0
-546 -249 -171 0
-544 -250 -172 0
-545 -251 -173 0
-546 -252 -174 0
-544 -253 -175 0
-545 -254 -176 0
-546 -255 -177 0
-544 -256 -178 0
-545 -257 -179 0
-546 -258 -180 0
-544 -259 -181 0
-545 -260 -182 0
-546 -261 -183 0
-544 -262 -184 0
-545 -263 -185 0
-546 -264 -186 0
-544 -265 -187 0
-545 -266 -188 0
-546 -267 -189 0
-544 -268 -190 0
-545 -269 -191 0
-546 -270 -192 0
-544 -271 -193 0
-545 -272 -194 0
-546 -273 -195 0
-544 -274 -196 0
-545 -275 -197 0
-546 -276 -198 0
-544 -277 -199 0
-545 -278 -200 0
-546 -279 -201 0
-544 -280 -202 0
-545 -281 -203 0
-546 -282 -204 0
-544 -283 -205 0
-545 -284 -206 0
-546 -285 -207 0
-544 -286 -208 0
-545 -287 -209 0
-546 -288 -210 0
-544 -289 -211 0
-545 -290 -212 0
-546 -291 -213 0
-544 -292 -214 0
-545 -293 -215 0
-546 -294 -216 0
-544 -295 -217 0
-545 -296 -218 0
-546 -297 -219 0
-544 -298 -220 0
-545 -299 -221 0
-546 -300 -222 0
-544 -301 -223 0
-545 -302 -224 0
-546 -303 -225 0
-544 -304 -226 0
-545 -305 -227 0
-546 -306 -228 0
-544 -307 -229 0
-545 -308 -230 0
-546 -309 -231 0
-544 -310 -232 0
-545 -311 -233 0
-546 -312 -234 0
-544 -313 -235 0
-545 -314 -236 0
-546 -315 -237 0
-544 -316 -238 0
-545 -317 -239 0
-546 -318 -240 0
-544 -319 -241 0
-545 -320 -242 0
-546 -321 -243 0
-544 -322 -244 0
-545 -323 -245 0
-546 -324 -246 0
-544 -325 -247 0
-545 -326 -248 0
-546 -327 -249 0
-544 -328 -250 0
-545 -329 -251 0
-546 -330 -252 0
-544 -331 -253 0
-545 -332 -254 0
-546 -333 -255 0
-544 -334 -256 0
-545 -335 -257 0
-546 -336 -258 0
-544 -337 -259 0
-545 -338 -260 0
-546 -339 -261 0
-544 -340 -262 0
-545 -341 -263 0
-546 -342 -264 0
-544 -343 -265 0
-545 -344 -266 0
-546 -345 -267 0
-544 -346 -268 0
-545 -347 -269 0
-546 -348 -270 0
-544 -349 -271 0
-545 -350 -272 0
-546 -351 -273 0
-544 -352 -274 0
-545 -353 -275 0
-546 -354 -276 0
-544 -355 -277 0
-545 -356 -278 0
-546 -357 -279 0
-544 -358 -280 0
-545 -359 -281 0
-546 -360 -282 0
-544 -361 -283 0
-545 -362 -284 0
-546 -363 -285 0
-544 -364 -286 0
-545 -365 -287 0
-546 -366 -288 0
-544 -367 -289 0
-545 -368 -290 0
-546 -369 -291 0
-544 -370 -292 0
-545 -371 -293 0
-546 -372 -294 0
-544 -373 -295 0
-545 -374 -296 0
-546 -375 -297 0
-544 -376 -298 0
-545 -377 -299 0
-546 -378 -300 0
-544 -379 -301 0
-545 -380 -302 0
-546 -381 -303 0
-544 -382 -304 0
-545 -383 -305 0
-546 -384 -306 0
-544 -385 -307 0
-545 -386 -308 0
-546 -387 -309 0
-544 -388 -310 0
-545 -389 -311 0
-546 -390 -312 0
-544 -391 -313 0
-545 -392 -314 0
-546 -393 -315 0
-544 -394 -316 0
-545 -395 -317 0
-546 -396 -318 0
-544 -397 -319 0
-545 -398 -320 0
-546 -399 -321 0
-544 -400 -322 0
-545 -401 -323 0
-546 -402 -324 0
-544 -403 -325 0
-545 -404 -326 0
-546 -405 -327 0
-544 -406 -328 0
-545 -407 -329 0
-546 -408 -330 0
-544 -409 -331 0
-545 -410 -332 0
-546 -411 -333 0
-544 -412 -334 0
-545 -413 -335 0
-546 -414 -336 0
-544 -415 -337 0
-545 -416 -338 0
-546 -417 -339 0
-544 -418 -340 0
-545 -419 -341 0
-546 -420 -342 0
-544 -421 -343 0
-545 -422 -344 0
-546 -423 -345 0
-544 -424 -346 0
-545 -425 -347 0
-546 -426 -348 0
-544 -427 -349 0
-545 -428 -350 0
-546 -429 -351 0
-544 -430 -352 0
-545 -431 -353 0
-546 -432 -354 0
-544 -433 -355 0
-545 -434 -356 0
-546 -435 -357 0
-544 -436 -358 0
-545 -437 -359 0
-546 -438 -360 0
-544 -439 -361 0
-545 -440 -362 0
-546 -441 -363 0
-544 -442 -364 0
-545 -443 -365 0
-546 -444 -366 0
-544 -445 -367 0
-545 -446 -368 0
-546 -447 -369 0
-544 -448 -370 0
-545 -449 -371 0
-546 -450 -372 0
-544 -451 -373 0
-545 -452 -374 0
-546 -453 -375 0
-544 -454 -376 0
-545 -455 -377 0
-546 -456 -378 0
-544 -457 -379 0
-545 -458 -380 0
-546 -459 -381 0
-544 -460 -382 0
-545 -461 -383 0
-546 -462 -384 0
-544 -463 -385 0
-545 -464 -386 0
-546 -465 -387 0
-544 -466 -388 0
-545 -467 -389 0
-546 -468 -390 0
-544 -469 -391 0
-545 -470 -392 0
-546 -471 -393 0
-544 -472 -394 0
-545 -473 -395 0
-546 -474 -396 0
-544 -475 -397 0
-545 -476 -398 0
-546 -477 -399 0
-544 -478 -400 0
-545 -479 -401 0
-546 -480 -402 0
-544 -481 -403 0
-545 -482 -404 0
-546 -483 -405 0
-544 -484 -406 0
-545 -485 -407 0
-546 -486 -408 0
-544 -487 -409 0
-545 -488 -410 0
-546 -489 -411 0
-544 -490 -412 0
-545 -491 -413 0
-546 -492 -414 0
-544 -493 -415 0
-545 -494 -416 0
-546 -495 -417 0
-544 -496 -418 0
-545 -497 -419 0
-546 -498 -420 0
-544 -499 -421 0
-545 -500 -422 0
-546 -501 -423 0
-544 -502 -424 0
-545 -503 -425 0
-546 -504 -426 0
-544 -505 -427 0
-545 -506 -428 0
-546 -507 -429 0
-544 -508 -430 0
-545 -509 -431 0
-546 -510 -432 0
-544 -511 -433 0
-545 -512 -434 0
-546 -513 -435 0
-544 -514 -436 0
-545 -515 -437 0
-546 -516 -438 0
-544 -517 -439 0
-545 -518 -440 0
-546 -519 -441 0
-544 -520 -442 0
-545 -521 -443 0
-546 -522 -444 0
-544 -523 -445 0
-545 -524 -446 0
-546 -525 -447 0
-544 -526 -448 0
-545 -527 -449 0
-546 -528 -450 0
-544 -529 -451 0
-545 -530 -452 0
-546 -531 -453 0
-544 -532 -454 0
-545 -533 -455 0
-546 -534 -456 0
-544 -535 -457 0
-545 -536 -458 0
-546 -537 -459 0
-544 -538 -460 0
-545 -539 -461 0
-546 -540 -462 0
-544 -541 -463 0
-545 -542 -464 0
-546 -543 -465 0
-544 -466 0
-545 -467 0
-546 -468 0
-547 -544 -469 0
-548 -545 -470 0
-549 -546 -471 0
-550 -544 -472 0
-551 -545 -473 0
-552 -546 -474 0
-553 -544 -475 0
-554 -545 -476 0
-555 -546 -477 0
-556 -544 -478 0
-557 -545 -479 0
-558 -546 -480 0
-559 -544 -481 0
-560 -545 -482 0
-561 -546 -483 0
-562 -544 -484 0
-563 -545 -485 0
-564 -546 -486 0
-565 -544 -487 0
-566 -545 -488 0
-567 -546 -489 0
-568 -544 -490 0
-569 -545 -491 0
-570 -546 -492 0
-571 -544 -493 0
-572 -545 -494 0
-573 -546 -495 0
-574 -544 -496 0
-575 -545 -497 0
-576 -546 -498 0
-577 -544 -499 0
-578 -545 -500 0
-579 -546 -501 0
-580 -544 -502 0
-581 -545 -503 0
-582 -546 -504 0
-583 -544 -505 0
-584 -545 -506 0
-585 -546 -507 0
-586 -544 -508 0
-587 -545 -509 0
-588 -546 -510 0
-589 -544 -511 0
-590 -545 -512 0
-591 -546 -513 0
-592 -544 -514 0
-593 -545 -515 0
-594 -546 -516 0
-595 -544 -517 0
-596 -545 -518 0
-597 -546 -519 0
-598 -544 -520 0
-599 -545 -521 0
-600 -546 -522 0
-601 -544 -523 0
-602 -545 -524 0
-603 -546 -525 0
-604 -544 -526 0
-605 -545 -527 0
-606 -546 -528 0
-607 -544 -529 0
-608 -545 -530 0
-609 -546 -531 0
-610 -544 -532 0
-611 -545 -533 0
-612 -546 -534 0
-613 -544 -535 0
-614 -545 -536 0
-615 -546 -537 0
-616 -544 -538 0
-617 -545 -539 0
-618 -546 -540 0
-619 -544 -541 0
-620 -545 -542 0
-621 -546 -543 0
-622 -544 0
-623 -545 0
-624 -546 0
-625 -547 -544 0
-626 -548 -545 0
-627 -549 -546 0
-628 -550 -544 0
-629 -551 -545 0
-630 -552 -546 0
-631 -553 -544 0
-632 -554 -545 0
-633 -555 -546 0
-634 -556 -544 0
-635 -557 -545 0
-636 -558 -546 0
-637 -559 -544 0
-638 -560 -545 0
-639 -561 -546 0
-640 -562 -544 0
-641 -563 -545 0
-642 -564 -546 0
-643 -565 -544 0
-644 -566 -545 0
-645 -567 -546 0
-646 -568 -544 0
-647 -569 -545 0
-648 -570 -546 0
-649 -571 -544 0
-650 -572 -545 0
-651 -573 -546 0
-652 -574 -544 0
-653 -575 -545 0
-654 -576 -546 0
-655 -577 -544 0
-656 -578 -545 0
-657 -579 -546 0
-658 -580 -544 0
-659 -581 -545 0
-660 -582 -546 0
-661 -583 -544 0
-662 -584 -545 0
-663 -585 -546 0
-664 -586 -544 0
-665 -587 -545 0
-666 -588 -546 0
-667 -589 -544 0
-668 -590 -545 0
-669 -591 -546 0
-670 -592 -544 0
-671 -593 -545 0
-672 -594 -546 0
-673 -595 -544 0
-674 -596 -545 0
-675 -597 -546 0
-676 -598 -544 0
-677 -599 -545 0
-678 -600 -546 0
-679 -601 -544 0
-680 -602 -545 0
-681 -603 -546 0
-682 -604 -544 0
-683 -605 -545 0
-684 -606 -546 0
-685 -607 -544 0
-686 -608 -545 0
-687 -609 -546 0
-688 -610 -544 0
-689 -611 -545 0
-690 -612 -546 0
-691 -613 -544 0
-692 -614 -545 0
-693 -615 -546 0
-694 -616 -544 0
-695 -617 -545 0
-696 -618 -546 0
-697 -619 -544 0
-698 -620 -545 0
-699 -621 -546 0
-700 -622 -544 0
-701 -623 -545 0
-702 -624 -546 0
-703 -625 -544 0
-704 -626 -545 0
-705 -627 -546 0
-706 -628 -544 0
-707 -629 -545 0
-708 -630 -546 0
-709 -631 -544 0
-710 -632 -545 0
-711 -633 -546 0
-712 -634 -544 0
-713 -635 -545 0
-714 -636 -546 0
-715 -637 -544 0
-716 -638 -545 0
-717 -639 -546 0
-718 -640 -544 0
-719 -641 -545 0
-720 -642 -546 0
-721 -643 -544 0
-722 -644 -545 0
-723 -645 -546 0
-724 -646 -544 0
-725 -647 -545 0
-726 -648 -546 0
-727 -649 -544 0
-728 -650 -545 0
-729 -651 -546 0
-730 -652 -544 0
-731 -653 -545 0
-732 -654 -546 0
-733 -655 -544 0
-734 -656 -545 0
-735 -657 -546 0
-736 -658 -544 0
-737 -659 -545 0
-738 -660 -546 0
-739 -661 -544 0
-740 -662 -545 0
-741 -663 -546 0
-742 -664 -544 0
-743 -665 -545 0
-744 -666 -546 0
-745 -667 -544 0
-746 -668 -545 0
-747 -669 -546 0
-748 -670 -544 0
-749 -671 -545 0
-750 -672 -546 0
-751 -673 -544 0
-752 -674 -545 0
-753 -675 -546 0
-754 -676 -544 0
-755 -677 -545 0
-756 -678 -546 0
-757 -679 -544 0
-758 -680 -545 0
-759 -681 -546 0
-760 -682 -544 0
-761 -683 -545 0
-762 -684 -546 0
-763 -685 -544 0
-764 -686 -545 0
-765 -687 -546 0
-766 -688 -544 0
-767 -689 -545 0
-768 -690 -546 0
-769 -691 -544 0
-770 -692 -545 0
-771 -693 -546 0
-772 -694 -544 0
-773 -695 -545 0
-774 -696 -546 0
-775 -697 -544 0
-776 -698 -545 0
-777 -699 -546 0
-778 -700 -544 0
-779 -701 -545 0
-780 -702 -546 0
-781 -703 -544 0
-782 -704 -545 0
-783 -705 -546 0
-784 -706 -544 0
-785 -707 -545 0
-786 -708 -546 0
-787 -709 -544 0
-788 -710 -545 0
-789 -711 -546 0
-790 -712 -544 0
-791 -713 -545 0
-792 -714 -546 0
-793 -715 -544 0
-794 -716 -545 0
-795 -717 -546 0
-796 -718 -544 0
-797 -719 -545 0
-798 -720 -546 0
-799 -721 -544 0
-800 -722 -545 0
-801 -723 -546 0
-802 -724 -544 0
-803 -725 -545 0
-804 -726 -546 0
-805 -727 -544 0
-806 -728 -545 0
-807 -729 -546 0
-808 -730 -544 0
-809 -731 -545 0
-810 -732 -546 0
-811 -733 -544 0
-812 -734 -545 0
-813 -735 -546 0
-814 -736 -544 0
-815 -737 -545 0
-816 -738 -546 0
-817 -739 -544 0
-818 -740 -545 0
-819 -741 -546 0
-820 -742 -544 0
-821 -743 -545 0
-822 -744 -546 0
-823 -745 -544 0
-824 -746 -545 0
-825 -747 -546 0
-826 -748 -544 0
-827 -749 -545 0
-828 -750 -546 0
-829 -751 -544 0
-830 -752 -545 0
-831 -753 -546 0
-832 -754 -544 0
-833 -755 -545 0
-834 -756 -546 0
-835 -757 -544 0
-836 -758 -545 0
-837 -759 -546 0
-838 -760 -544 0
-839 -761 -545 0
-840 -762 -546 0
-841 -763 -544 0
-842 -764 -545 0
-843 -765 -546 0
-844 -766 -544 0
-845 -767 -545 0
-846 -768 -546 0
-847 -769 -544 0
-848 -770 -545 0
-849 -771 -546 0
-850 -772 -544 0
-851 -773 -545 0
-852 -774 -546 0
-853 -775 -544 0
-854 -776 -545 0
-855 -777 -546 0
-856 -778 -544 0
-857 -779 -545 0
-858 -780 -546 0
-859 -781 -544 0
-860 -782 -545 0
-861 -783 -546 0
-862 -784 -544 0
-863 -785 -545 0
-864 -786 -546 0
-865 -787 -544 0
-866 -788 -545 0
-867 -789 -546 0
-868 -790 -544 0
-869 -791 -545 0
-870 -792 -546 0
-871 -793 -544 0
-872 -794 -545 0
-873 -795 -546 0
-874 -796 -544 0
-875 -797 -545 0
-876 -798 -546 0
-877 -799 -544 0
-878 -800 -545 0
-879 -801 -546 0
-880 -802 -544 0
-881 -803 -545 0
-882 -804 -546 0
-883 -805 -544 0
-884 -806 -545 0
-885 -807 -546 0
-886 -808 -544 0
-887 -809 -545 0
-888 -810 -546 0
-889 -811 -544 0
-890 -812 -545 0
-891 -813 -546 0
-892 -814 -544 0
-893 -815 -545 0
-894 -816 -546 0
-895 -817 -544 0
-896 -818 -545 0
-897 -819 -546 0
-898 -820 -544 0
-899 -821 -545 0
-900 -822 -546 0
-901 -823 -544 0
-902 -824 -545 0
-903 -825 -546 0
-904 -826 -544 0
-905 -827 -545 0
-906 -828 -546 0
-907 -829 -544 0
-908 -830 -545 0
-909 -831 -546 0
-910 -832 -544 0
-911 -833 -545 0
-912 -834 -546 0
-913 -835 -544 0
-914 -836 -545 0
-915 -837 -546 0
-916 -838 -544 0
-917 -839 -545 0
-918 -840 -546 0
-919 -841 -544 0
-920 -842 -545 0
-921 -843 -546 0
-922 -844 -544 0
-923 -845 -545 0
-924 -846 -546 0
-925 -847 -544 0
-926 -848 -545 0
-927 -849 -546 0
-928 -850 -544 0
-929 -851 -545 0
-930 -852 -546 0
-931 -853 -544 0
-932 -854 -545 0
-933 -855 -546 0
-934 -856 -544 0
-935 -857 -545 0
-936 -858 -546 0
-937 -859 -544 0
-938 -860 -545 0
-939 -861 -546 0
-940 -862 -544 0
-941 -863 -545 0
-942 -864 -546 0
-943 -865 -544 0
-944 -866 -545 0
-945 -867 -546 0
-946 -868 -544 0
-947 -869 -545 0
-948 -870 -546 0
-949 -871 -544 0
-950 -872 -545 0
-951 -873 -546 0
-952 -874 -544 0
-953 -875 -545 0
-954 -876 -546 0
-955 -877 -544 0
-956 -878 -545 0
-957 -879 -546 0
-958 -880 -544 0
-959 -881 -545 0
-960 -882 -546 0
-961 -883 -544 0
-962 -884 -545 0
-963 -885 -546 0
-964 -886 -544 0
-965 -887 -545 0
-966 -888 -546 0
-967 -889 -544 0
-968 -890 -545 0
-969 -891 -546 0
-970 -892 -544 0
-971 -893 -545 0
-972 -894 -546 0
-973 -895 -544 0
-974 -896 -545 0
-975 -897 -546 0
-976 -898 -544 0
-977 -899 -545 0
-978 -900 -546 0
-979 -901 -544 0
-980 -902 -545 0
-981 -903 -546 0
-982 -904 -544 0
-983 -905 -545 0
-984 -906 -546 0
-985 -907 -544 0
-986 -908 -545 0
-987 -909 -546 0
-988 -910 -544 0
-989 -911 -545 0
-990 -912 -546 0
-991 -913 -544 0
-992 -914 -545 0
-993 -915 -546 0
-994 -916 -544 0
-995 -917 -545 0
-996 -918 -546 0
-997 -919 -544 0
-998 -920 -545 0
-999 -921 -546 0
-1000 -922 -544 0
-1001 -923 -545 0
-1002 -924 -546 0
-1003 -925 -544 0
-1004 -926 -545 0
-1005 -927 -546 0
-1006 -928 -544 0
-1007 -929 -545 0
-1008 -930 -546 0
-1009 -931 -544 0
-1010 -932 -545 0
-1011 -933 -546 0
-1012 -934 -544 0
-1013 -935 -545 0
-1014 -936 -546 0
-1015 -937 -544 0
-1016 -938 -545 0
-1017 -939 -546 0
-1018 -940 -544 0
-1019 -941 -545 0
-1020 -942 -546 0
-1021 -943 -544 0
-1022 -944 -545 0
-1023 -945 -546 0
-1024 -946 -544 0
-1025 -947 -545 0
-1026 -948 -546 0
-1027 -949 -544 0
-1028 -950 -545 0
-1029 -951 -546 0
-565 -82 -1 0
-566 -83 -2 0
-567 -84 -3 0
-565 -85 -4 0
-566 -86 -5 0
-567 -87 -6 0
-565 -88 -7 0
-566 -89 -8 0
-567 -90 -9 0
-565 -91 -10 0
-566 -92 -11 0
-567 -93 -12 0
-565 -94 -13 0
-566 -95 -14 0
-567 -96 -15 0
-565 -97 -16 0
-566 -98 -17 0
-567 -99 -18 0
-565 -100 -19 0
-566 -101 -20 0
-567 -102 -21 0
-565 -103 -22 0
-566 -104 -23 0
-567 -105 -24 0
-565 -106 -25 0
-566 -107 -26 0
-567 -108 -27 0
-565 -109 -28 0
-566 -110 -29 0
-567 -111 -30 0
-565 -112 -31 0
-566 -113 -32 0
-567 -114 -33 0
-565 -115 -34 0
-566 -116 -35 0
-567 -117 -36 0
-565 -118 -37 0
-566 -119 -38 0
-567 -120 -39 0
-565 -121 -40 0
-566 -122 -41 0
-567 -123 -42 0
-565 -124 -43 0
-566 -125 -44 0
-567 -126 -45 0
-565 -127 -46 0
-566 -128 -47 0
-567 -129 -48 0
-565 -130 -49 0
-566 -131 -50 0
-567 -132 -51 0
-565 -133 -52 0
-566 -134 -53 0
-567 -135 -54 0
-565 -136 -55 0
-566 -137 -56 0
-567 -138 -57 0
-565 -139 -58 0
-566 -140 -59 0
-567 -141 -60 0
-565 -142 -61 0
-566 -143 -62 0
-567 -144 -63 0
-565 -145 -64 0
-566 -146 -65 0
-567 -147 -66 0
-565 -148 -67 0
-566 -149 -68 0
-567 -150 -69 0
-565 -151 -70 0
-566 -152 -71 0
-567 -153 -72 0
-565 -154 -73 0
-566 -155 -74 0
-567 -156 -75 0
-565 -157 -76 0
-566 -158 -77 0
-567 -159 -78 0
-565 -160 -79 0
-566 -161 -80 0
-567 -162 -81 0
-565 -163 -82 0
-566 -164 -83 0
-567 -165 -84 0
-565 -166 -85 0
-566 -167 -86 0
-567 -168 -87 0
-565 -169 -88 0
-566 -170 -89 0
-567 -171 -90 0
-565 -172 -91 0
-566 -173 -92 0
-567 -174 -93 0
-565 -175 -94 0
-566 -176 -95 0
-567 -177 -96 0
-565 -178 -97 0
-566 -179 -98 0
-567 -180 -99 0
-565 -181 -100 0
-566 -182 -101 0
-567 -183 -102 0
-565 -184 -103 0
-566 -185 -104 0
-567 -186 -105 0
-565 -187 -106 0
-566 -188 -107 0
-567 -189 -108 0
-565 -190 -109 0
-566 -191 -110 0
-567 -192 -111 0
-565 -193 -112 0
-566 -194 -113 0
-567 -195 -114 0
-565 -196 -115 0
-566 -197 -116 0
-567 -198 -117 0
-565 -199 -118 0
-566 -200 -119 0
-567 -201 -120 0
-565 -202 -121 0
-566 -203 -122 0
-567 -204 -123 0
-565 -205 -124 0
-566 -206 -125 0
-567 -207 -126 0
-565 -208 -127 0
-566 -209 -128 0
-567 -210 -129 0
-565 -211 -130 0
-566 -212 -131 0
-567 -213 -132 0
-565 -214 -133 0
-566 -215 -134 0
-567 -216 -135 0
-565 -217 -136 0
-566 -218 -137 0
-567 -219 -138 0
-565 -220 -139 0
-566 -221 -140 0
-567 -222 -141 0
-565 -223 -142 0
-566 -224 -143 0
-567 -225 -144 0
-565 -226 -145 0
-566 -227 -146 0
-567 -228 -147 0
-565 -229 -148 0
-566 -230 -149 0
-567 -231 -150 0
-565 -232 -151 0
-566 -233 -152 0
-567 -234 -153 0
-565 -235 -154 0
-566 -236 -155 0
-567 -237 -156 0
-565 -238 -157 0
-566 -239 -158 0
-567 -240 -159 0
-565 -241 -160 0
-566 -242 -161 0
-567 -243 -162 0
-565 -244 -163 0
-566 -245 -164 0
-567 -246 -165 0
-565 -247 -166 0
-566 -248 -167 0
-567 -249 -168 0
-565 -250 -169 0
-566 -251 -170 0
-567 -252 -171 0
-565 -253 -172 0
-566 -254 -173 0
-567 -255 -174 0
-565 -256 -175 0
-566 -257 -176 0
-567 -258 -177 0
-565 -259 -178 0
-566 -260 -179 0
-567 -261 -180 0
-565 -262 -181 0
-566 -263 -182 0
-567 -264 -183 0
-565 -265 -184 0
-566 -266 -185 0
-567 -267 -186 0
-565 -268 -187 0
-566 -269 -188 0
-567 -270 -189 0
-565 -271 -190 0
-566 -272 -191 0
-567 -273 -192 0
-565 -274 -193 0
-566 -275 -194 0
-567 -276 -195 0
-565 -277 -196 0
-566 -278 -197 0
-567 -279 -198 0
-565 -280 -199 0
-566 -281 -200 0
-567 -282 -201 0
-565 -283 -202 0
-566 -284 -203 0
-567 -285 -204 0
-565 -286 -205 0
-566 -287 -206 0
-567 -288 -207 0
-565 -289 -208 0
-566 -290 -209 0
-567 -291 -210 0
-565 -292 -211 0
-566 -293 -212 0
-567 -294 -213 0
-565 -295 -214 0
-566 -296 -215 0
-567 -297 -216 0
-565 -298 -217 0
-566 -299 -218 0
-567 -300 -219 0
-565 -301 -220 0
-566 -302 -221 0
-567 -303 -222 0
-565 -304 -223 0
-566 -305 -224 0
-567 -306 -225 0
-565 -307 -226 0
-566 -308 -227 0
-567 -309 -228 0
-565 -310 -229 0
-566 -311 -230 0
-567 -312 -231 0
-565 -313 -232 0
-566 -314 -233 0
-567 -315 -234 0
-565 -316 -235 0
-566 -317 -236 0
-567 -318 -237 0
-565 -319 -238 0
-566 -320 -239 0
-567 -321 -240 0
-565 -322 -241 0
-566 -323 -242 0
-567 -324 -243 0
-565 -325 -244 0
-566 -326 -245 0
-567 -327 -246 0
-565 -328 -247 0
-566 -329 -248 0
-567 -330 -249 0
-565 -331 -250 0
-566 -332 -251 0
-567 -333 -252 0
-565 -334 -253 0
-566 -335 -254 0
-567 -336 -255 0
-565 -337 -256 0
-566 -338 -257 0
-567 -339 -258 0
-565 -340 -259 0
-566 -341 -260 0
-567 -342 -261 0
-565 -343 -262 0
-566 -344 -263 0
-567 -345 -264 0
-565 -346 -265 0
-566 -347 -266 0
-567 -348 -267 0
-565 -349 -268 0
-566 -350 -269 0
-567 -351 -270 0
-565 -352 -271 0
-566 -353 -272 0
-567 -354 -273 0
-565 -355 -274 0
-566 -356 -275 0
-567 -357 -276 0
-565 -358 -277 0
-566 -359 -278 0
-567 -360 -279 0
-565 -361 -280 0
-566 -362 -281 0
-567 -363 -282 0
-565 -364 -283 0
-566 -365 -284 0
-567 -366 -285 0
-565 -367 -286 0
-566 -368 -287 0
-567 -369 -288 0
-565 -370 -289 0
-566 -371 -290 0
-567 -372 -291 0
-565 -373 -292 0
-566 -374 -293 0
-567 -375 -294 0
-565 -376 -295 0
-566 -377 -296 0
-567 -378 -297 0
-565 -379 -298 0
-566 -380 -299 0
-567 -381 -300 0
-565 -382 -301 0
-566 -383 -302 0
-567 -384 -303 0
-565 -385 -304 0
-566 -386 -305 0
-567 -387 -306 0
-565 -388 -307 0
-566 -389 -308 0
-567 -390 -309 0
-565 -391 -310 0
-566 -392 -311 0
-567 -393 -312 0
-565 -394 -313 0
-566 -395 -314 0
-567 -396 -315 0
-565 -397 -316 0
-566 -398 -317 0
-567 -399 -318 0
-565 -400 -319 0
-566 -401 -320 0
-567 -402 -321 0
-565 -403 -322 0
-566 -404 -323 0
-567 -405 -324 0
-565 -406 -325 0
-566 -407 -326 0
-567 -408 -327 0
-565 -409 -328 0
-566 -410 -329 0
-567 -411 -330 0
-565 -412 -331 0
-566 -413 -332 0
-567 -414 -333 0
-565 -415 -334 0
-566 -416 -335 0
-567 -417 -336 0
-565 -418 -337 0
-566 -419 -338 0
-567 -420 -339 0
-565 -421 -340 0
-566 -422 -341 0
-567 -423 -342 0
-565 -424 -343 0
-566 -425 -344 0
-567 -426 -345 0
-565 -427 -346 0
-566 -428 -347 0
-567 -429 -348 0
-565 -430 -349 0
-566 -431 -350 0
-567 -432 -351 0
-565 -433 -352 0
-566 -434 -353 0
-567 -435 -354 0
-565 -436 -355 0
-566 -437 -356 0
-567 -438 -357 0
-565 -439 -358 0
-566 -440 -359 0
-567 -441 -360 0
-565 -442 -361 0
-566 -443 -362 0
-567 -444 -363 0
-565 -445 -364 0
-566 -446 -365 0
-567 -447 -366 0
-565 -448 -367 0
-566 -449 -368 0
-567 -450 -369 0
-565 -451 -370 0
-566 -452 -371 0
-567 -453 -372 0
-565 -454 -373 0
-566 -455 -374 0
-567 -456 -375 0
-565 -457 -376 0
-566 -458 -377 0
-567 -459 -378 0
-565 -460 -379 0
-566 -461 -380 0
-567 -462 -381 0
-565 -463 -382 0
-566 -464 -383 0
-567 -465 -384 0
-565 -466 -385 0
-566 -467 -386 0
-567 -468 -387 0
-565 -469 -388 0
-566 -470 -389 0
-567 -471 -390 0
-565 -472 -391 0
-566 -473 -392 0
-567 -474 -393 0
-565 -475 -394 0
-566 -476 -395 0
-567 -477 -396 0
-565 -478 -397 0
-566 -479 -398 0
-567 -480 -399 0
-565 -481 -400 0
-566 -482 -401 0
-567 -483 -402 0
-565 -484 -403 0
-566 -485 -404 0
-567 -486 -405 0
-565 -487 -406 0
-566 -488 -407 0
-567 -489 -408 0
-565 -490 -409 0
-566 -491 -410 0
-567 -492 -411 0
-565 -493 -412 0
-566 -494 -413 0
-567 -495 -414 0
-565 -496 -415 0
-566 -497 -416 0
-567 -498 -417 0
-565 -499 -418 0
-566 -500 -419 0
-567 -501 -420 0
-565 -502 -421 0
-566 -503 -422 0
-567 -504 -423 0
-565 -505 -424 0
-566 -506 -425 0
-567 -507 -426 0
-565 -508 -427 0
-566 -509 -428 0
-567 -510 -429 0
-565 -511 -430 0
-566 -512 -431 0
-567 -513 -432 0
-565 -514 -433 0
-566 -515 -434 0
-567 -516 -435 0
-565 -517 -436 0
-566 -518 -437 0
-567 -519 -438 0
-565 -520 -439 0
-566 -521 -440 0
-567 -522 -441 0
-565 -523 -442 0
-566 -524 -443 0
-567 -525 -444 0
-565 -526 -445 0
-566 -527 -446 0
-567 -528 -447 0
-565 -529 -448 0
-566 -530 -449 0
-567 -531 -450 0
-565 -532 -451 0
-566 -533 -452 0
-567 -534 -453 0
-565 -535 -454 0
-566 -536 -455 0
-567 -537 -456 0
-565 -538 -457 0
-566 -539 -458 0
-567 -540 -459 0
-565 -541 -460 0
-566 -542 -461 0
-567 -543 -462 0
-565 -544 -463 0
-566 -545 -464 0
-567 -546 -465 0
-565 -547 -466 0
-566 -548 -467 0
-567 -549 -468 0
-565 -550 -469 0
-566 -551 -470 0
-567 -552 -471 0
-565 -553 -472 0
-566 -554 -473 0
-567 -555 -474 0
-565 -556 -475 0
-566 -557 -476 0
-567 -558 -477 0
-565 -559 -478 0
-566 -560 -479 0
-567 -561 -480 0
-565 -562 -481 0
-566 -563 -482 0
-567 -564 -483 0
-565 -484 0
-566 -485 0
-567 -486 0
-568 -565 -487 0
-569 -566 -488 0
-570 -567 -489 0
-571 -565 -490 0
-572 -566 -491 0
-573 -567 -492 0
-574 -565 -493 0
-575 -566 -494 0
-576 -567 -495 0
-577 -565 -496 0
-578 -566 -497 0
-579 -567 -498 0
-580 -565 -499 0
-581 -566 -500 0
-582 -567 -501 0
-583 -565 -502 0
-584 -566 -503 0
-585 -567 -504 0
-586 -565 -505 0
-587 -566 -506 0
-588 -567 -507 0
-589 -565 -508 0
-590 -566 -509 0
-591 -567 -510 0
-592 -565 -511 0
-593 -566 -512 0
-594 -567 -513 0
-595 -565 -514 0
-596 -566 -515 0
-597 -567 -516 0
-598 -565 -517 0
-599 -566 -518 0
-600 -567 -519 0
-601 -565 -520 0
-602 -566 -521 0
-603 -567 -522 0
-604 -565 -523 0
-605 -566 -524 0
-606 -567 -525 0
-607 -565 -526 0
-608 -566 -527 0
-609 -567 -528 0
-610 -565 -529 0
-611 -566 -530 0
-612 -567 -531 0
-613 -565 -532 0
-614 -566 -533 0
-615 -567 -534 0
-616 -565 -535 0
-617 -566 -536 0
-618 -567 -537 0
-619 -565 -538 0
-620 -566 -539 0
-621 -567 -540 0
-622 -565 -541 0
-623 -566 -542 0
-624 -567 -543 0
-625 -565 -544 0
-626 -566 -545 0
-627 -567 -546 0
-628 -565 -547 0
-629 -566 -548 0
-630 -567 -549 0
-631 -565 -550 0
-632 -566 -551 0
-633 -567 -552 0
-634 -565 -553 0
-635 -566 -554 0
-636 -567 -555 0
-637 -565 -556 0
-638 -566 -557 0
-639 -567 -558 0
-640 -565 -559 0
-641 -566 -560 0
-642 -567 -561 0
-643 -565 -562 0
-644 -566 -563 0
-645 -567 -564 0
-646 -565 0
-647 -566 0
-648 -567 0
-649 -568 -565 0
-650 -569 -566 0
-651 -570 -567 0
-652 -571 -565 0
-653 -572 -566 0
-654 -573 -567 0
-655 -574 -565 0
-656 -575 -566 0
-657 -576 -567 0
-658 -577 -565 0
-659 -578 -566 0
-660 -579 -567 0
-661 -580 -565 0
-662 -581 -566 0
-663 -582 -567 0
-664 -583 -565 0
-665 -584 -566 0
-666 -585 -567 0
-667 -586 -565 0
-668 -587 -566 0
-669 -588 -567 0
-670 -589 -565 0
-671 -590 -566 0
-672 -591 -567 0
-673 -592 -565 0
-674 -593 -566 0
-675 -594 -567 0
-676 -595 -565 0
-677 -596 -566 0
-678 -597 -567 0
-679 -598 -565 0
-680 -599 -566 0
-681 -600 -567 0
-682 -601 -565 0
-683 -602 -566 0
-684 -603 -567 0
-685 -604 -565 0
-686 -605 -566 0
-687 -606 -567 0
-688 -607 -565 0
-689 -608 -566 0
-690 -609 -567 0
-691 -610 -565 0
-692 -611 -566 0
-693 -612 -567 0
-694 -613 -565 0
-695 -614 -566 0
-696 -615 -567 0
-697 -616 -565 0
-698 -617 -566 0
-699 -618 -567 0
-700 -619 -565 0
-701 -620 -566 0
-702 -621 -567 0
-703 -622 -565 0
-704 -623 -566 0
-705 -624 -567 0
-706 -625 -565 0
-707 -626 -566 0
-708 -627 -567 0
-709 -628 -565 0
-710 -629 -566 0
-711 -630 -567 0
-712 -631 -565 0
-713 -632 -566 0
-714 -633 -567 0
-715 -634 -565 0
-716 -635 -566 0
-717 -636 -567 0
-718 -637 -565 0
-719 -638 -566 0
-720 -639 -567 0
-721 -640 -565 0
-722 -641 -566 0
-723 -642 -567 0
-724 -643 -565 0
-725 -644 -566 0
-726 -645 -567 0
-727 -646 -565 0
-728 -647 -566 0
-729 -648 -567 0
-730 -649 -565 0
-731 -650 -566 0
-732 -651 -567 0
-733 -652 -565 0
-734 -653 -566 0
-735 -654 -567 0
-736 -655 -565 0
-737 -656 -566 0
-738 -657 -567 0
-739 -658 -565 0
-740 -659 -566 0
-741 -660 -567 0
-742 -661 -565 0
-743 -662 -566 0
-744 -663 -567 0
-745 -664 -565 0
-746 -665 -566 0
-747 -666 -567 0
-748 -667 -565 0
-749 -668 -566 0
-750 -669 -567 0
-751 -670 -565 0
-752 -671 -566 0
-753 -672 -567 0
-754 -673 -565 0
-755 -674 -566 0
-756 -675 -567 0
-757 -676 -565 0
-758 -677 -566 0
-759 -678 -567 0
-760 -679 -565 0
-761 -680 -566 0
-762 -681 -567 0
-763 -682 -565 0
-764 -683 -566 0
-765 -684 -567 0
-766 -685 -565 0
-767 -686 -566 0
-768 -687 -567 0
-769 -688 -565 0
-770 -689 -566 0
-771 -690 -567 0
-772 -691 -565 0
-773 -692 -566 0
-774 -693 -567 0
-775 -694 -565 0
-776 -695 -566 0
-777 -696 -567 0
-778 -697 -565 0
-779 -698 -566 0
-780 -699 -567 0
-781 -700 -565 0
-782 -701 -566 0
-783 -702 -567 0
-784 -703 -565 0
-785 -704 -566 0
-786 -705 -567 0
-787 -706 -565 0
-788 -707 -566 0
-789 -708 -567 0
-790 -709 -565 0
-791 -710 -566 0
-792 -711 -567 0
-793 -712 -565 0
-794 -713 -566 0
-795 -714 -567 0
-796 -715 -565 0
-797 -716 -566 0
-798 -717 -567 0
-799 -718 -565 0
-800 -719 -566 0
-801 -720 -567 0
-802 -721 -565 0
-803 -722 -566 0
-804 -723 -567 0
-805 -724 -565 0
-806 -725 -566 0
-807 -726 -567 0
-808 -727 -565 0
-809 -728 -566 0
-810 -729 -567 0
-811 -730 -565 0
-812 -731 -566 0
-813 -732 -567 0
-814 -733 -565 0
-815 -734 -566 0
-816 -735 -567 0
-817 -736 -565 0
-818 -737 -566 0
-819 -738 -567 0
-820 -739 -565 0
-821 -740 -566 0
-822 -741 -567 0
-823 -742 -565 0
-824 -743 -566 0
-825 -744 -567 0
-826 -745 -565 0
-827 -746 -566 0
-828 -747 -567 0
-829 -748 -565 0
-830 -749 -566 0
-831 -750 -567 0
-832 -751 -565 0
-833 -752 -566 0
-834 -753 -567 0
-835 -754 -565 0
-836 -755 -566 0
-837 -756 -567 0
-838 -757 -565 0
-839 -758 -566 0
-840 -759 -567 0
-841 -760 -565 0
-842 -761 -566 0
-843 -762 -567 0
-844 -763 -565 0
-845 -764 -566 0
-846 -765 -567 0
-847 -766 -565 0
-848 -767 -566 0
-849 -768 -567 0
-850 -769 -565 0
-851 -770 -566 0
-852 -771 -567 0
-853 -772 -565 0
-854 -773 -566 0
-855 -774 -567 0
-856 -775 -565 0
-857 -776 -566 0
-858 -777 -567 0
-859 -778 -565 0
-860 -779 -566 0
-861 -780 -567 0
-862 -781 -565 0
-863 -782 -566 0
-864 -783 -567 0
-865 -784 -565 0
-866 -785 -566 0
-867 -786 -567 0
-868 -787 -565 0
-869 -788 -566 0
-870 -789 -567 0
-871 -790 -565 0
-872 -791 -566 0
-873 -792 -567 0
-874 -793 -565 0
-875 -794 -566 0
-876 -795 -567 0
-877 -796 -565 0
-878 -797 -566 0
-879 -798 -567 0
-880 -799 -565 0
-881 -800 -566 0
-882 -801 -567 0
-883 -802 -565 0
-884 -803 -566 0
-885 -804 -567 0
-886 -805 -565 0
-887 -806 -566 0
-888 -807 -567 0
-889 -808 -565 0
-890 -809 -566 0
-891 -810 -567 0
-892 -811 -565 0
-893 -812 -566 0
-894 -813 -567 0
-895 -814 -565 0
-896 -815 -566 0
-897 -816 -567 0
-898 -817 -565 0
-899 -818 -566 0
-900 -819 -567 0
-901 -820 -565 0
-902 -821 -566 0
-903 -822 -567 0
-904 -823 -565 0
-905 -824 -566 0
-906 -825 -567 0
-907 -826 -565 0
-908 -827 -566 0
-909 -828 -567 0
-910 -829 -565 0
-911 -830 -566 0
-912 -831 -567 0
-913 -832 -565 0
-914 -833 -566 0
-915 -834 -567 0
-916 -835 -565 0
-917 -836 -566 0
-918 -837 -567 0
-919 -838 -565 0
-920 -839 -566 0
-921 -840 -567 0
-922 -841 -565 0
-923 -842 -566 0
-924 -843 -567 0
-925 -844 -565 0
-926 -845 -566 0
-927 -846 -567 0
-928 -847 -565 0
-929 -848 -566 0
-930 -849 -567 0
-931 -850 -565 0
-932 -851 -566 0
-933 -852 -567 0
-934 -853 -565 0
-935 -854 -566 0
-936 -855 -567 0
-937 -856 -565 0
-938 -857 -566 0
-939 -858 -567 0
-940 -859 -565 0
-941 -860 -566 0
-942 -861 -567 0
-943 -862 -565 0
-944 -863 -566 0
-945 -864 -567 0
-946 -865 -565 0
-947 -866 -566 0
-948 -867 -567 0
-949 -868 -565 0
-950 -869 -566 0
-951 -870 -567 0
-952 -871 -565 0
-953 -872 -566 0
-954 -873 -567 0
-955 -874 -565 0
-956 -875 -566 0
-957 -876 -567 0
-958 -877 -565 0
-959 -878 -566 0
-960 -879 -567 0
-961 -880 -565 0
-962 -881 -566 0
-963 -882 -567 0
-964 -883 -565 0
-965 -884 -566 0
-966 -885 -567 0
-967 -886 -565 0
-968 -887 -566 0
-969 -888 -567 0
-970 -889 -565 0
-971 -890 -566 0
-972 -891 -567 0
-973 -892 -565 0
-974 -893 -566 0
-975 -894 -567 0
-976 -895 -565 0
-977 -896 -566 0
-978 -897 -567 0
-979 -898 -565 0
-980 -899 -566 0
-981 -900 -567 0
-982 -901 -565 0
-983 -902 -566 0
-984 -903 -567 0
-985 -904 -565 0
-986 -905 -566 0
-987 -906 -567 0
-988 -907 -565 0
-989 -908 -566 0
-990 -909 -567 0
-991 -910 -565 0
-992 -911 -566 0
-993 -912 -567 0
-994 -913 -565 0
-995 -914 -566 0
-996 -915 -567 0
-997 -916 -565 0
-998 -917 -566 0
-999 -918 -567 0
-1000 -919 -565 0
-1001 -920 -566 0
-1002 -921 -567 0
-1003 -922 -565 0
-1004 -923 -566 0
-1005 -924 -567 0
-1006 -925 -565 0
-1007 -926 -566 0
-1008 -927 -567 0
-1009 -928 -565 0
-1010 -929 -566 0
-1011 -930 -567 0
-1012 -931 -565 0
-1013 -932 -566 0
-1014 -933 -567 0
-1015 -934 -565 0
-1016 -935 -566 0
-1017 -936 -567 0
-1018 -937 -565 0
-1019 -938 -566 0
-1020 -939 -567 0
-1021 -940 -565 0
-1022 -941 -566 0
-1023 -942 -567 0
-1024 -943 -565 0
-1025 -944 -566 0
-1026 -945 -567 0
-1027 -946 -565 0
-1028 -947 -566 0
-1029 -948 -567 0
-586 -85 -1 0
-587 -86 -2 0
-588 -87 -3 0
-586 -88 -4 0
-587 -89 -5 0
-588 -90 -6 0
-586 -91 -7 0
-587 -92 -8 0
-588 -93 -9 0
-586 -94 -10 0
-587 -95 -11 0
-588 -96 -12 0
-586 -97 -13 0
-587 -98 -14 0
-588 -99 -15 0
-586 -100 -16 0
-587 -101 -17 0
-588 -102 -18 0
-586 -103 -19 0
-587 -104 -20 0
-588 -105 -21 0
-586 -106 -22 0
-587 -107 -23 0
-588 -108 -24 0
-586 -109 -25 0
-587 -110 -26 0
-588 -111 -27 0
-586 -112 -28 0
-587 -113 -29 0
-588 -114 -30 0
-586 -115 -31 0
-587 -116 -32 0
-588 -117 -33 0
-586 -118 -34 0
-587 -119 -35 0
-588 -120 -36 0
-586 -121 -37 0
-587 -122 -38 0
-588 -123 -39 0
-586 -124 -40 0
-587 -125 -41 0
-588 -126 -42 0
-586 -127 -43 0
-587 -128 -44 0
-588 -129 -45 0
-586 -130 -46 0
-587 -131 -47 0
-588 -132 -48 0
-586 -133 -49 0
-587 -134 -50 0
-588 -135 -51 0
-586 -136 -52 0
-587 -137 -53 0
-588 -138 -54 0
-586 -139 -55 0
-587 -140 -56 0
-588 -141 -57 0
-586 -142 -58 0
-587 -143 -59 0
-588 -144 -60 0
-586 -145 -61 0
-587 -146 -62 0
-588 -147 -63 0
-586 -148 -64 0
-587 -149 -65 0
-588 -150 -66 0
-586 -151 -67 0
-587 -152 -68 0
-588 -153 -69 0
-586 -154 -70 0
-587 -155 -71 0
-588 -156 -72 0
-586 -157 -73 0
-587 -158 -74 0
-588 -159 -75 0
-586 -160 -76 0
-587 -161 -77 0
-588 -162 -78 0
-586 -163 -79 0
-587 -164 -80 0
-588 -165 -81 0
-586 -166 -82 0
-587 -167 -83 0
-588 -168 -84 0
-586 -169 -85 0
-587 -170 -86 0
-588 -171 -87 0
-586 -172 -88 0
-587 -173 -89 0
-588 -174 -90 0
-586 -175 -91 0
-587 -176 -92 0
-588 -177 -93 0
-586 -178 -94 0
-587 -179 -95 0
-588 -180 -96 0
-586 -181 -97 0
-587 -182 -98 0
-588 -183 -99 0
-586 -184 -100 0
-587 -185 -101 0
-588 -186 -102 0
-586 -187 -103 0
-587 -188 -104 0
-588 -189 -105 0
-586 -190 -106 0
-587 -191 -107 0
-588 -192 -108 0
-586 -193 -109 0
-587 -194 -110 0
-588 -195 -111 0
-586 -196 -112 0
-587 -197 -113 0
-588 -198 -114 0
-586 -199 -115 0
-587 -200 -116 0
-588 -201 -117 0
-586 -202 -118 0
-587 -203 -119 0
-588 -204 -120 0
-586 -205 -121 0
-587 -206 -122 0
-588 -207 -123 0
-586 -208 -124 0
-587 -209 -125 0
-588 -210 -126 0
-586 -211 -127 0
-587 -212 -128 0
-588 -213 -129 0
-586 -214 -130 0
-587 -215 -131 0
-588 -216 -132 0
-586 -217 -133 0
-587 -218 -134 0
-588 -219 -135 0
-586 -220 -136 0
-587 -221 -137 0
-588 -222 -138 0
-586 -223 -139 0
-587 -224 -140 0
-588 -225 -141 0
-586 -226 -142 0
-587 -227 -143 0
-588 -228 -144 0
-586 -229 -145 0
-587 -230 -146 0
-588 -231 -147 0
-586 -232 -148 0
-587 -233 -149 0
-588 -234 -150 0
-586 -235 -151 0
-587 -236 -152 0
-588 -237 -153 0
-586 -238 -154 0
-587 -239 -155 0
-588 -240 -156 0
-586 -241 -157 0
-587 -242 -158 0
-588 -243 -159 0
-586 -244 -160 0
-587 -245 -161 0
-588 -246 -162 0
-586 -247 -163 0
-587 -248 -164 0
-588 -249 -165 0
-586 -250 -166 0
-587 -251 -167 0
-588 -252 -168 0
-586 -253 -169 0
-587 -254 -170 0
-588 -255 -171 0
-586 -256 -172 0
-587 -257 -173 0
-588 -258 -174 0
-586 -259 -175 0
-587 -260 -176 0
-588 -261 -177 0
-586 -262 -178 0
-587 -263 -179 0
-588 -264 -180 0
-586 -265 -181 0
-587 -266 -182 0
-588 -267 -183 0
-586 -268 -184 0
-587 -269 -185 0
-588 -270 -186 0
-586 -271 -187 0
-587 -272 -188 0
-588 -273 -189 0
-586 -274 -190 0
-587 -275 -191 0
-588 -276 -192 0
-586 -277 -193 0
-587 -278 -194 0
-588 -279 -195 0
-586 -280 -196 0
-587 -281 -197 0
-588 -282 -198 0
-586 -283 -199 0
-587 -284 -200 0
-588 -285 -201 0
-586 -286 -202 0
-587 -287 -203 0
-588 -288 -204 0
-586 -289 -205 0
-587 -290 -206 0
-588 -291 -207 0
-586 -292 -208 0
-587 -293 -209 0
-588 -294 -210 0
-586 -295 -211 0
-587 -296 -212 0
-588 -297 -213 0
-586 -298 -214 0
-587 -299 -215 0
-588 -300 -216 0
-586 -301 -217 0
-587 -302 -218 0
-588 -303 -219 0
-586 -304 -220 0
-587 -305 -221 0
-588 -306 -222 0
-586 -307 -223 0
-587 -308 -224 0
-588 -309 -225 0
-586 -310 -226 0
-587 -311 -227 0
-588 -312 -228 0
-586 -313 -229 0
-587 -314 -230 0
-588 -315 -231 0
-586 -316 -232 0
-587 -317 -233 0
-588 -318 -234 0
-586 -319 -235 0
-587 -320 -236 0
-588 -321 -237 0
-586 -322 -238 0
-587 -323 -239 0
-588 -324 -240 0
-586 -325 -241 0
-587 -326 -242 0
-588 -327 -243 0
-586 -328 -244 0
-587 -329 -245 0
-588 -330 -246 0
-586 -331 -247 0
-587 -332 -248 0
-588 -333 -249 0
-586 -334 -250 0
-587 -335 -251 0
-588 -336 -252 0
-586 -337 -253 0
-587 -338 -254 0
-588 -339 -255 0
-586 -340 -256 0
-587 -341 -257 0
-588 -342 -258 0
-586 -343 -259 0
-587 -344 -260 0
-588 -345 -261 0
-586 -346 -262 0
-587 -347 -263 0
-588 -348 -264 0
-586 -349 -265 0
-587 -350 -266 0
-588 -351 -267 0
-586 -352 -268 0
-587 -353 -269 0
-588 -354 -270 0
-586 -355 -271 0
-587 -356 -272 0
-588 -357 -273 0
-586 -358 -274 0
-587 -359 -275 0
-588 -360 -276 0
-586 -361 -277 0
-587 -362 -278 0
-588 -363 -279 0
-586 -364 -280 0
-587 -365 -281 0
-588 -366 -282 0
-586 -367 -283 0
-587 -368 -284 0
-588 -369 -285 0
-586 -370 -286 0
-587 -371 -287 0
-588 -372 -288 0
-586 -373 -289 0
-587 -374 -290 0
-588 -375 -291 0
-586 -376 -292 0
-587 -377 -293 0
-588 -378 -294 0
-586 -379 -295 0
-587 -380 -296 0
-588 -381 -297 0
-586 -382 -298 0
-587 -383 -299 0
-588 -384 -300 0
-586 -385 -301 0
-587 -386 -302 0
-588 -387 -303 0
-586 -388 -304 0
-587 -389 -305 0
-588 -390 -306 0
-586 -391 -307 0
-587 -392 -308 0
-588 -393 -309 0
-586 -394 -310 0
-587 -395 -311 0
-588 -396 -312 0
-586 -397 -313 0
-587 -398 -314 0
-588 -399 -315 0
-586 -400 -316 0
-587 -401 -317 0
-588 -402 -318 0
-586 -403 -319 0
-587 -404 -320 0
-588 -405 -321 0
-586 -406 -322 0
-587 -407 -323 0
-588 -408 -324 0
-586 -409 -325 0
-587 -410 -326 0
-588 -411 -327 0
-586 -412 -328 0
-587 -413 -329 0
-588 -414 -330 0
-586 -415 -331 0
-587 -416 -332 0
-588 -417 -333 0
-586 -418 -334 0
-587 -419 -335 0
-588 -420 -336 0
-586 -421 -337 0
-587 -422 -338 0
-588 -423 -339 0
-586 -424 -340 0
-587 -425 -341 0
-588 -426 -342 0
-586 -427 -343 0
-587 -428 -344 0
-588 -429 -345 0
-586 -430 -346 0
-587 -431 -347 0
-588 -432 -348 0
-586 -433 -349 0
-587 -434 -350 0
-588 -435 -351 0
-586 -436 -352 0
-587 -437 -353 0
-588 -438 -354 0
-586 -439 -355 0
-587 -440 -356 0
-588 -441 -357 0
-586 -442 -358 0
-587 -443 -359 0
-588 -444 -360 0
-586 -445 -361 0
-587 -446 -362 0
-588 -447 -363 0
-586 -448 -364 0
-587 -449 -365 0
-588 -450 -366 0
-586 -451 -367 0
-587 -452 -368 0
-588 -453 -369 0
-586 -454 -370 0
-587 -455 -371 0
-588 -456 -372 0
-586 -457 -373 0
-587 -458 -374 0
-588 -459 -375 0
-586 -460 -376 0
-587 -461 -377 0
-588 -462 -378 0
-586 -463 -379 0
-587 -464 -380 0
-588 -465 -381 0
-586 -466 -382 0
-587 -467 -383 0
-588 -468 -384 0
-586 -469 -385 0
-587 -470 -386 0
-588 -471 -387 0
-586 -472 -388 0
-587 -473 -389 0
-588 -474 -390 0
-586 -475 -391 0
-587 -476 -392 0
-588 -477 -393 0
-586 -478 -394 0
-587 -479 -395 0
-588 -480 -396 0
-586 -481 -397 0
-587 -482 -398 0
-588 -483 -399 0
-586 -484 -400 0
-587 -485 -401 0
-588 -486 -402 0
-586 -487 -403 0
-587 -488 -404 0
-588 -489 -405 0
-586 -490 -406 0
-587 -491 -407 0
-588 -492 -408 0
-586 -493 -409 0
-587 -494 -410 0
-588 -495 -411 0
-586 -496 -412 0
-587 -497 -413 0
-588 -498 -414 0
-586 -499 -415 0
-587 -500 -416 0
-588 -501 -417 0
-586 -502 -418 0
-587 -503 -419 0
-588 -504 -420 0
-586 -505 -421 0
-587 -506 -422 0
-588 -507 -423 0
-586 -508 -424 0
-587 -509 -425 0
-588 -510 -426 0
-586 -511 -427 0
-587 -512 -428 0
-588 -513 -429 0
-586 -514 -430 0
-587 -515 -431 0
-588 -516 -432 0
-586 -517 -433 0
-587 -518 -434 0
-588 -519 -435 0
-586 -520 -436 0
-587 -521 -437 0
-588 -522 -438 0
-586 -523 -439 0
-587 -524 -440 0
-588 -525 -441 0
-586 -526 -442 0
-587 -527 -443 0
-588 -528 -444 0
-586 -529 -445 0
-587 -530 -446 0
-588 -531 -447 0
-586 -532 -448 0
-587 -533 -449 0
-588 -534 -450 0
-586 -535 -451 0
-587 -536 -452 0
-588 -537 -453 0
-586 -538 -454 0
-587 -539 -455 0
-588 -540 -456 0
-586 -541 -457 0
-587 -542 -458 0
-588 -543 -459 0
-586 -544 -460 0
-587 -545 -461 0
-588 -546 -462 0
-586 -547 -463 0
-587 -548 -464 0
-588 -549 -465 0
-586 -550 -466 0
-587 -551 -467 0
-588 -552 -468 0
-586 -553 -469 0
-587 -554 -470 0
-588 -555 -471 0
-586 -556 -472 0
-587 -557 -473 0
-588 -558 -474 0
-586 -559 -475 0
-587 -560 -476 0
-588 -561 -477 0
-586 -562 -478 0
-587 -563 -479 0
-588 -564 -480 0
-586 -565 -481 0
-587 -566 -482 0
-588 -567 -483 0
-586 -568 -484 0
-587 -569 -485 0
-588 -570 -486 0
-586 -571 -487 0
-587 -572 -488 0
-588 -573 -489 0
-586 -574 -490 0
-587 -575 -491 0
-588 -576 -492 0
-586 -577 -493 0
-587 -578 -494 0
-588 -579 -495 0
-586 -580 -496 0
-587 -581 -497 0
-588 -582 -498 0
-586 -583 -499 0
-587 -584 -500 0
-588 -585 -501 0
-586 -502 0
-587 -503 0
-588 -504 0
-589 -586 -505 0
-590 -587 -506 0
-591 -588 -507 0
-592 -586 -508 0
-593 -587 -509 0
-594 -588 -510 0
-595 -586 -511 0
-596 -587 -512 0
-597 -588 -513 0
-598 -586 -514 0
-599 -587 -515 0
-600 -588 -516 0
-601 -586 -517 0
-602 -587 -518 0
-603 -588 -519 0
-604 -586 -520 0
-605 -587 -521 0
-606 -588 -522 0
-607 -586 -523 0
-608 -587 -524 0
-609 -588 -525 0
-610 -586 -526 0
-611 -587 -527 0
-612 -588 -528 0
-613 -586 -529 0
-614 -587 -530 0
-615 -588 -531 0
-616 -586 -532 0
-617 -587 -533 0
-618 -588 -534 0
-619 -586 -535 0
-620 -587 -536 0
-621 -588 -537 0
-622 -586 -538 0
-623 -587 -539 0
-624 -588 -540 0
-625 -586 -541 0
-626 -587 -542 0
-627 -588 -543 0
-628 -586 -544 0
-629 -587 -545 0
-630 -588 -546 0
-631 -586 -547 0
-632 -587 -548 0
-633 -588 -549 0
-634 -586 -550 0
-635 -587 -551 0
-636 -588 -552 0
-637 -586 -553 0
-638 -587 -554 0
-639 -588 -555 0
-640 -586 -556 0
-641 -587 -557 0
-642 -588 -558 0
-643 -586 -559 0
-644 -587 -560 0
-645 -588 -561 0
-646 -586 -562 0
-647 -587 -563 0
-648 -588 -564 0
-649 -586 -565 0
-650 -587 -566 0
-651 -588 -567 0
-652 -586 -568 0
-653 -587 -569 0
-654 -588 -570 0
-655 -586 -571 0
-656 -587 -572 0
-657 -588 -573 0
-658 -586 -574 0
-659 -587 -575 0
-660 -588 -576 0
-661 -586 -577 0
-662 -587 -578 0
-663 -588 -579 0
-664 -586 -580 0
-665 -587 -581 0
-666 -588 -582 0
-667 -586 -583 0
-668 -587 -584 0
-669 -588 -585 0
-670 -586 0
-671 -587 0
-672 -588 0
-673 -589 -586 0
-674 -590 -587 0
-675 -591 -588 0
-676 -592 -586 0
-677 -593 -587 0
-678 -594 -588 0
-679 -595 -586 0
-680 -596 -587 0
-681 -597 -588 0
-682 -598 -586 0
-683 -599 -587 0
-684 -600 -588 0
-685 -601 -586 0
-686 -602 -587 0
-687 -603 -588 0
-688 -604 -586 0
-689 -605 -587 0
-690 -606 -588 0
-691 -607 -586 0
-692 -608 -587 0
-693 -609 -588 0
-694 -610 -586 0
-695 -611 -587 0
-696 -612 -588 0
-697 -613 -586 0
-698 -614 -587 0
-699 -615 -588 0
-700 -616 -586 0
-701 -617 -587 0
-702 -618 -588 0
-703 -619 -586 0
-704 -620 -587 0
-705 -621 -588 0
-706 -622 -586 0
-707 -623 -587 0
-708 -624 -588 0
-709 -625 -586 0
-710 -626 -587 0
-711 -627 -588 0
-712 -628 -586 0
-713 -629 -587 0
-714 -630 -588 0
-715 -631 -586 0
-716 -632 -587 0
-717 -633 -588 0
-718 -634 -586 0
-719 -635 -587 0
-720 -636 -588 0
-721 -637 -586 0
-722 -638 -587 0
-723 -639 -588 0
-724 -640 -586 0
-725 -641 -587 0
-726 -642 -588 0
-727 -643 -586 0
-728 -644 -587 0
-729 -645 -588 0
-730 -646 -586 0
-731 -647 -587 0
-732 -648 -588 0
-733 -649 -586 0
-734 -650 -587 0
-735 -651 -588 0
-736 -652 -586 0
-737 -653 -587 0
-738 -654 -588 0
-739 -655 -586 0
-740 -656 -587 0
-741 -657 -588 0
-742 -658 -586 0
-743 -659 -587 0
-744 -660 -588 0
-745 -661 -586 0
-746 -662 -587 0
-747 -663 -588 0
-748 -664 -586 0
-749 -665 -587 0
-750 -666 -588 0
-751 -667 -586 0
-752 -668 -587 0
-753 -669 -588 0
-754 -670 -586 0
-755 -671 -587 0
-756 -672 -588 0
-757 -673 -586 0
-758 -674 -587 0
-759 -675 -588 0
-760 -676 -586 0
-761 -677 -587 0
-762 -678 -588 0
-763 -679 -586 0
-764 -680 -587 0
-765 -681 -588 0
-766 -682 -586 0
-767 -683 -587 0
-768 -684 -588 0
-769 -685 -586 0
-770 -686 -587 0
-771 -687 -588 0
-772 -688 -586 0
-773 -689 -587 0
-774 -690 -588 0
-775 -691 -586 0
-776 -692 -587 0
-777 -693 -588 0
-778 -694 -586 0
-779 -695 -587 0
-780 -696 -588 0
-781 -697 -586 0
-782 -698 -587 0
-783 -699 -588 0
-784 -700 -586 0
-785 -701 -587 0
-786 -702 -588 0
-787 -703 -586 0
-788 -704 -587 0
-789 -705 -588 0
-790 -706 -586 0
-791 -707 -587 0
-792 -708 -588 0
-793 -709 -586 0
-794 -710 -587 0
-795 -711 -588 0
-796 -712 -586 0
-797 -713 -587 0
-798 -714 -588 0
-799 -715 -586 0
-800 -716 -587 0
-801 -717 -588 0
-802 -718 -586 0
-803 -719 -587 0
-804 -720 -588 0
-805 -721 -586 0
-806 -722 -587 0
-807 -723 -588 0
-808 -724 -586 0
-809 -725 -587 0
-810 -726 -588 0
-811 -727 -586 0
-812 -728 -587 0
-813 -729 -588 0
-814 -730 -586 0
-815 -731 -587 0
-816 -732 -588 0
-817 -733 -586 0
-818 -734 -587 0
-819 -735 -588 0
-820 -736 -586 0
-821 -737 -587 0
-822 -738 -588 0
-823 -739 -586 0
-824 -740 -587 0
-825 -741 -588 0
-826 -742 -586 0
-827 -743 -587 0
-828 -744 -588 0
-829 -745 -586 0
-830 -746 -587 0
-831 -747 -588 0
-832 -748 -586 0
-833 -749 -587 0
-834 -750 -588 0
-835 -751 -586 0
-836 -752 -587 0
-837 -753 -588 0
-838 -754 -586 0
-839 -755 -587 0
-840 -756 -588 0
-841 -757 -586 0
-842 -758 -587 0
-843 -759 -588 0
-844 -760 -586 0
-845 -761 -587 0
-846 -762 -588 0
-847 -763 -586 0
-848 -764 -587 0
-849 -765 -588 0
-850 -766 -586 0
-851 -767 -587 0
-852 -768 -588 0
-853 -769 -586 0
-854 -770 -587 0
-855 -771 -588 0
-856 -772 -586 0
-857 -773 -587 0
-858 -774 -588 0
-859 -775 -586 0
-860 -776 -587 0
-861 -777 -588 0
-862 -778 -586 0
-863 -779 -587 0
-864 -780 -588 0
-865 -781 -586 0
-866 -782 -587 0
-867 -783 -588 0
-868 -784 -586 0
-869 -785 -587 0
-870 -786 -588 0
-871 -787 -586 0
-872 -788 -587 0
-873 -789 -588 0
-874 -790 -586 0
-875 -791 -587 0
-876 -792 -588 0
-877 -793 -586 0
-878 -794 -587 0
-879 -795 -588 0
-880 -796 -586 0
-881 -797 -587 0
-882 -798 -588 0
-883 -799 -586 0
-884 -800 -587 0
-885 -801 -588 0
-886 -802 -586 0
-887 -803 -587 0
-888 -804 -588 0
-889 -805 -586 0
-890 -806 -587 0
-891 -807 -588 0
-892 -808 -586 0
-893 -809 -587 0
-894 -810 -588 0
-895 -811 -586 0
-896 -812 -587 0
-897 -813 -588 0
-898 -814 -586 0
-899 -815 -587 0
-900 -816 -588 0
-901 -817 -586 0
-902 -818 -587 0
-903 -819 -588 0
-904 -820 -586 0
-905 -821 -587 0
-906 -822 -588 0
-907 -823 -586 0
-908 -824 -587 0
-909 -825 -588 0
-910 -826 -586 0
-911 -827 -587 0
-912 -828 -588 0
-913 -829 -586 0
-914 -830 -587 0
-915 -831 -588 0
-916 -832 -586 0
-917 -833 -587 0
-918 -834 -588 0
-919 -835 -586 0
-920 -836 -587 0
-921 -837 -588 0
-922 -838 -586 0
-923 -839 -587 0
-924 -840 -588 0
-925 -841 -586 0
-926 -842 -587 0
-927 -843 -588 0
-928 -844 -586 0
-929 -845 -587 0
-930 -846 -588 0
-931 -847 -586 0
-932 -848 -587 0
-933 -849 -588 0
-934 -850 -586 0
-935 -851 -587 0
-936 -852 -588 0
-937 -853 -586 0
-938 -854 -587 0
-939 -855 -588 0
-940 -856 -586 0
-941 -857 -587 0
-942 -858 -588 0
-943 -859 -586 0
-944 -860 -587 0
-945 -861 -588 0
-946 -862 -586 0
-947 -863 -587 0
-948 -864 -588 0
-949 -865 -586 0
-950 -866 -587 0
-951 -867 -588 0
-952 -868 -586 0
-953 -869 -587 0
-954 -870 -588 0
-955 -871 -586 0
-956 -872 -587 0
-957 -873 -588 0
-958 -874 -586 0
-959 -875 -587 0
-960 -876 -588 0
-961 -877 -586 0
-962 -878 -587 0
-963 -879 -588 0
-964 -880 -586 0
-965 -881 -587 0
-966 -882 -588 0
-967 -883 -586 0
-968 -884 -587 0
-969 -885 -588 0
-970 -886 -586 0
-971 -887 -587 0
-972 -888 -588 0
-973 -889 -586 0
-974 -890 -587 0
-975 -891 -588 0
-976 -892 -586 0
-977 -893 -587 0
-978 -894 -588 0
-979 -895 -586 0
-980 -896 -587 0
-981 -897 -588 0
-982 -898 -586 0
-983 -899 -587 0
-984 -900 -588 0
-985 -901 -586 0
-986 -902 -587 0
-987 -903 -588 0
-988 -904 -586 0
-989 -905 -587 0
-990 -906 -588 0
-991 -907 -586 0
-992 -908 -587 0
-993 -909 -588 0
-994 -910 -586 0
-995 -911 -587 0
-996 -912 -588 0
-997 -913 -586 0
-998 -914 -587 0
-999 -915 -588 0
-1000 -916 -586 0
-1001 -917 -587 0
-1002 -918 -588 0
-1003 -919 -586 0
-1004 -920 -587 0
-1005 -921 -588 0
-1006 -922 -586 0
-1007 -923 -587 0
-1008 -924 -588 0
-1009 -925 -586 0
-1010 -926 -587 0
-1011 -927 -588 0
-1012 -928 -586 0
-1013 -929 -587 0
-1014 -930 -588 0
-1015 -931 -586 0
-1016 -932 -587 0
-1017 -933 -588 0
-1018 -934 -586 0
-1019 -935 -587 0
-1020 -936 -588 0
-1021 -937 -586 0
-1022 -938 -587 0
-1023 -939 -588 0
-1024 -940 -586 0
-1025 -941 -587 0
-1026 -942 -588 0
-1027 -943 -586 0
-1028 -944 -587 0
-1029 -945 -588 0
-607 -88 -1 0
-608 -89 -2 0
-609 -90 -3 0
-607 -91 -4 0
-608 -92 -5 0
-609 -93 -6 0
-607 -94 -7 0
-608 -95 -8 0
-609 -96 -9 0
-607 -97 -10 0
-608 -98 -11 0
-609 -99 -12 0
-607 -100 -13 0
-608 -101 -14 0
-609 -102 -15 0
-607 -103 -16 0
-608 -104 -17 0
-609 -105 -18 0
-607 -106 -19 0
-608 -107 -20 0
-609 -108 -21 0
-607 -109 -22 0
-608 -110 -23 0
-609 -111 -24 0
-607 -112 -25 0
-608 -113 -26 0
-609 -114 -27 0
-607 -115 -28 0
-608 -116 -29 0
-609 -117 -30 0
-607 -118 -31 0
-608 -119 -32 0
-609 -120 -33 0
-607 -121 -34 0
-608 -122 -35 0
-609 -123 -36 0
-607 -124 -37 0
-608 -125 -38 0
-609 -126 -39 0
-607 -127 -40 0
-608 -128 -41 0
-609 -129 -42 0
-607 -130 -43 0
-608 -131 -44 0
-609 -132 -45 0
-607 -133 -46 0
-608 -134 -47 0
-609 -135 -48 0
-607 -136 -49 0
-608 -137 -50 0
-609 -138 -51 0
-607 -139 -52 0
-608 -140 -53 0
-609 -141 -54 0
-607 -142 -55 0
-608 -143 -56 0
-609 -144 -57 0
-607 -145 -58 0
-608 -146 -59 0
-609 -147 -60 0
-607 -148 -61 0
-608 -149 -62 0
-609 -150 -63 0
-607 -151 -64 0
-608 -152 -65 0
-609 -153 -66 0
-607 -154 -67 0
-608 -155 -68 0
-609 -156 -69 0
-607 -157 -70 0
-608 -158 -71 0
-609 -159 -72 0
-607 -160 -73 0
-608 -161 -74 0
-609 -162 -75 0
-607 -163 -76 0
-608 -164 -77 0
-609 -165 -78 0
-607 -166 -79 0
-608 -167 -80 0
-609 -168 -81 0
-607 -169 -82 0
-608 -170 -83 0
-609 -171 -84 0
-607 -172 -85 0
-608 -173 -86 0
-609 -174 -87 0
-607 -175 -88 0
-608 -176 -89 0
-609 -177 -90 0
-607 -178 -91 0
-608 -179 -92 0
-609 -180 -93 0
-607 -181 -94 0
-608 -182 -95 0
-609 -183 -96 0
-607 -184 -97 0
-608 -185 -98 0
-609 -186 -99 0
-607 -187 -100 0
-608 -188 -101 0
-609 -189 -102 0
-607 -190 -103 0
-608 -191 -104 0
-609 -192 -105 0
-607 -193 -106 0
-608 -194 -107 0
-609 -195 -108 0
-607 -196 -109 0
-608 -197 -110 0
-609 -198 -111 0
-607 -199 -112 0
-608 -200 -113 0
-609 -201 -114 0
-607 -202 -115 0
-608 -203 -116 0
-609 -204 -117 0
-607 -205 -118 0
-608 -206 -119 0
-609 -207 -120 0
-607 -208 -121 0
-608 -209 -122 0
-609 -210 -123 0
-607 -211 -124 0
-608 -212 -125 0
-609 -213 -126 0
-607 -214 -127 0
-608 -215 -128 0
-609 -216 -129 0
-607 -217 -130 0
-608 -218 -131 0
-609 -219 -132 0
-607 -220 -133 0
-608 -221 -134 0
-609 -222 -135 0
-607 -223 -136 0
-608 -224 -137 0
-609 -225 -138 0
-607 -226 -139 0
-608 -227 -140 0
-609 -228 -141 0
-607 -229 -142 0
-608 -230 -143 0
-609 -231 -144 0
-607 -232 -145 0
-608 -233 -146 0
-609 -234 -147 0
-607 -235 -148 0
-608 -236 -149 0
-609 -237 -150 0
-607 -238 -151 0
-608 -239 -152 0
-609 -240 -153 0
-607 -241 -154 0
-608 -242 -155 0
-609 -243 -156 0
-607 -244 -157 0
-608 -245 -158 0
-609 -246 -159 0
-607 -247 -160 0
-608 -248 -161 0
-609 -249 -162 0
-607 -250 -163 0
-608 -251 -164 0
-609 -252 -165 0
-607 -253 -166 0
-608 -254 -167 0
-609 -255 -168 0
-607 -256 -169 0
-608 -257 -170 0
-609 -258 -171 0
-607 -259 -172 0
-608 -260 -173 0
-609 -261 -174 0
-607 -262 -175 0
-608 -263 -176 0
-609 -264 -177 0
-607 -265 -178 0
-608 -266 -179 0
-609 -267 -180 0
-607 -268 -181 0
-608 -269 -182 0
-609 -270 -183 0
-607 -271 -184 0
-608 -272 -185 0
-609 -273 -186 0
-607 -274 -187 0
-608 -275 -188 0
-609 -276 -189 0
-607 -277 -190 0
-608 -278 -191 0
-609 -279 -192 0
-607 -280 -193 0
-608 -281 -194 0
-609 -282 -195 0
-607 -283 -196 0
-608 -284 -197 0
-609 -285 -198 0
-607 -286 -199 0
-608 -287 -200 0
-609 -288 -201 0
-607 -289 -202 0
-608 -290 -203 0
-609 -291 -204 0
-607 -292 -205 0
-608 -293 -206 0
-609 -294 -207 0
-607 -295 -208 0
-608 -296 -209 0
-609 -297 -210 0
-607 -298 -211 0
-608 -299 -212 0
-609 -300 -213 0
-607 -301 -214 0
-608 -302 -215 0
-609 -303 -216 0
-607 -304 -217 0
-608 -305 -218 0
-609 -306 -219 0
-607 -307 -220 0
-608 -308 -221 0
-609 -309 -222 0
-607 -310 -223 0
-608 -311 -224 0
-609 -312 -225 0
-607 -313 -226 0
-608 -314 -227 0
-609 -315 -228 0
-607 -316 -229 0
-608 -317 -230 0
-609 -318 -231 0
-607 -319 -232 0
-608 -320 -233 0
-609 -321 -234 0
-607 -322 -235 0
-608 -323 -236 0
-609 -324 -237 0
-607 -325 -238 0
-608 -326 -239 0
-609 -327 -240 0
-607 -328 -241 0
-608 -329 -242 0
-609 -330 -243 0
-607 -331 -244 0
-608 -332 -245 0
-609 -333 -246 0
-607 -334 -247 0
-608 -335 -248 0
-609 -336 -249 0
-607 -337 -250 0
-608 -338 -251 0
-609 -339 -252 0
-607 -340 -253 0
-608 -341 -254 0
-609 -342 -255 0
-607 -343 -256 0
-608 -344 -257 0
-609 -345 -258 0
-607 -346 -259 0
-608 -347 -260 0
-609 -348 -261 0
-607 -349 -262 0
-608 -350 -263 0
-609 -351 -264 0
-607 -352 -265 0
-608 -353 -266 0
-609 -354 -267 0
-607 -355 -268 0
-608 -356 -269 0
-609 -357 -270 0
-607 -358 -271 0
-608 -359 -272 0
-609 -360 -273 0
-607 -361 -274 0
-608 -362 -275 0
-609 -363 -276 0
-607 -364 -277 0
-608 -365 -278 0
-609 -366 -279 0
-607 -367 -280 0
-608 -368 -281 0
-609 -369 -282 0
-607 -370 -283 0
-608 -371 -284 0
-609 -372 -285 0
-607 -373 -286 0
-608 -374 -287 0
-609 -375 -288 0
-607 -376 -289 0
-608 -377 -290 0
-609 -378 -291 0
-607 -379 -292 0
-608 -380 -293 0
-609 -381 -294 0
-607 -382 -295 0
-608 -383 -296 0
-609 -384 -297 0
-607 -385 -298 0
-608 -386 -299 0
-609 -387 -300 0
-607 -388 -301 0
-608 -389 -302 0
-609 -390 -303 0
-607 -391 -304 0
-608 -392 -305 0
-609 -393 -306 0
-607 -394 -307 0
-608 -395 -308 0
-609 -396 -309 0
-607 -397 -310 0
-608 -398 -311 0
-609 -399 -312 0
-607 -400 -313 0
-608 -401 -314 0
-609 -402 -315 0
-607 -403 -316 0
-608 -404 -317 0
-609 -405 -318 0
-607 -406 -319 0
-608 -407 -320 0
-609 -408 -321 0
-607 -409 -322 0
-608 -410 -323 0
-609 -411 -324 0
-607 -412 -325 0
-608 -413 -326 0
-609 -414 -327 0
-607 -415 -328 0
-608 -416 -329 0
-609 -417 -330 0
-607 -418 -331 0
-608 -419 -332 0
-609 -420 -333 0
-607 -421 -334 0
-608 -422 -335 0
-609 -423 -336 0
-607 -424 -337 0
-608 -425 -338 0
-609 -426 -339 0
-607 -427 -340 0
-608 -428 -341 0
-609 -429 -342 0
-607 -430 -343 0
-608 -431 -344 0
-609 -432 -345 0
-607 -433 -346 0
-608 -434 -347 0
-609 -435 -348 0
-607 -436 -349 0
-608 -437 -350 0
-609 -438 -351 0
-607 -439 -352 0
-608 -440 -353 0
-609 -441 -354 0
-607 -442 -355 0
-608 -443 -356 0
-609 -444 -357 0
-607 -445 -358 0
-608 -446 -359 0
-609 -447 -360 0
-607 -448 -361 0
-608 -449 -362 0
-609 -450 -363 0
-607 -451 -364 0
-608 -452 -365 0
-609 -453 -366 0
-607 -454 -367 0
-608 -455 -368 0
-609 -456 -369 0
-607 -457 -370 0
-608 -458 -371 0
-609 -459 -372 0
-607 -460 -373 0
-608 -461 -374 0
-609 -462 -375 0
-607 -463 -376 0
-608 -464 -377 0
-609 -465 -378 0
-607 -466 -379 0
-608 -467 -380 0
-609 -468 -381 0
-607 -469 -382 0
-608 -470 -383 0
-609 -471 -384 0
-607 -472 -385 0
-608 -473 -386 0
-609 -474 -387 0
-607 -475 -388 0
-608 -476 -389 0
-609 -477 -390 0
-607 -478 -391 0
-608 -479 -392 0
-609 -480 -393 0
-607 -481 -394 0
-608 -482 -395 0
-609 -483 -396 0
-607 -484 -397 0
-608 -485 -398 0
-609 -486 -399 0
-607 -487 -400 0
-608 -488 -401 0
-609 -489 -402 0
-607 -490 -403 0
-608 -491 -404 0
-609 -492 -405 0
-607 -493 -406 0
-608 -494 -407 0
-609 -495 -408 0
-607 -496 -409 0
-608 -497 -410 0
-609 -498 -411 0
-607 -499 -412 0
-608 -500 -413 0
-609 -501 -414 0
-607 -502 -415 0
-608 -503 -416 0
-609 -504 -417 0
-607 -505 -418 0
-608 -506 -419 0
-609 -507 -420 0
-607 -508 -421 0
-608 -509 -422 0
-609 -510 -423 0
-607 -511 -424 0
-608 -512 -425 0
-609 -513 -426 0
-607 -514 -427 0
-608 -515 -428 0
-609 -516 -429 0
-607 -517 -430 0
-608 -518 -431 0
-609 -519 -432 0
-607 -520 -433 0
-608 -521 -434 0
-609 -522 -435 0
-607 -523 -436 0
-608 -524 -437 0
-609 -525 -438 0
-607 -526 -439 0
-608 -527 -440 0
-609 -528 -441 0
-607 -529 -442 0
-608 -530 -443 0
-609 -531 -444 0
-607 -532 -445 0
-608 -533 -446 0
-609 -534 -447 0
-607 -535 -448 0
-608 -536 -449 0
-609 -537 -450 0
-607 -538 -451 0
-608 -539 -452 0
-609 -540 -453 0
-607 -541 -454 0
-608 -542 -455 0
-609 -543 -456 0
-607 -544 -457 0
-608 -545 -458 0
-609 -546 -459 0
-607 -547 -460 0
-608 -548 -461 0
-609 -549 -462 0
-607 -550 -463 0
-608 -551 -464 0
-609 -552 -465 0
-607 -553 -466 0
-608 -554 -467 0
-609 -555 -468 0
-607 -556 -469 0
-608 -557 -470 0
-609 -558 -471 0
-607 -559 -472 0
-608 -560 -473 0
-609 -561 -474 0
-607 -562 -475 0
-608 -563 -476 0
-609 -564 -477 0
-607 -565 -478 0
-608 -566 -479 0
-609 -567 -480 0
-607 -568 -481 0
-608 -569 -482 0
-609 -570 -483 0
-607 -571 -484 0
-608 -572 -485 0
-609 -573 -486 0
-607 -574 -487 0
-608 -575 -488 0
-609 -576 -489 0
-607 -577 -490 0
-608 -578 -491 0
-609 -579 -492 0
-607 -580 -493 0
-608 -581 -494 0
-609 -582 -495 0
-607 -583 -496 0
-608 -584 -497 0
-609 -585 -498 0
-607 -586 -499 0
-608 -587 -500 0
-609 -588 -501 0
-607 -589 -502 0
-608 -590 -503 0
-609 -591 -504 0
-607 -592 -505 0
-608 -593 -506 0
-609 -594 -507 0
-607 -595 -508 0
-608 -596 -509 0
-609 -597 -510 0
-607 -598 -511 0
-608 -599 -512 0
-609 -600 -513 0
-607 -601 -514 0
-608 -602 -515 0
-609 -603 -516 0
-607 -604 -517 0
-608 -605 -518 0
-609 -606 -519 0
-607 -520 0
-608 -521 0
-609 -522 0
-610 -607 -523 0
-611 -608 -524 0
-612 -609 -525 0
-613 -607 -526 0
-614 -608 -527 0
-615 -609 -528 0
-616 -607 -529 0
-617 -608 -530 0
-618 -609 -531 0
-619 -607 -532 0
-620 -608 -533 0
-621 -609 -534 0
-622 -607 -535 0
-623 -608 -536 0
-624 -609 -537 0
-625 -607 -538 0
-626 -608 -539 0
-627 -609 -540 0
-628 -607 -541 0
-629 -608 -542 0
-630 -609 -543 0
-631 -607 -544 0
-632 -608 -545 0
-633 -609 -546 0
-634 -607 -547 0
-635 -608 -548 0
-636 -609 -549 0
-637 -607 -550 0
-638 -608 -551 0
-639 -609 -552 0
-640 -607 -553 0
-641 -608 -554 0
-642 -609 -555 0
-643 -607 -556 0
-644 -608 -557 0
-645 -609 -558 0
-646 -607 -559 0
-647 -608 -560 0
-648 -609 -561 0
-649 -607 -562 0
-650 -608 -563 0
-651 -609 -564 0
-652 -607 -565 0
-653 -608 -566 0
-654 -609 -567 0
-655 -607 -568 0
-656 -608 -569 0
-657 -609 -570 0
-658 -607 -571 0
-659 -608 -572 0
-660 -609 -573 0
-661 -607 -574 0
-662 -608 -575 0
-663 -609 -576 0
-664 -607 -577 0
-665 -608 -578 0
-666 -609 -579 0
-667 -607 -580 0
-668 -608 -581 0
-669 -609 -582 0
-670 -607 -583 0
-671 -608 -584 0
-672 -609 -585 0
-673 -607 -586 0
-674 -608 -587 0
-675 -609 -588 0
-676 -607 -589 0
-677 -608 -590 0
-678 -609 -591 0
-679 -607 -592 0
-680 -608 -593 0
-681 -609 -594 0
-682 -607 -595 0
-683 -608 -596 0
-684 -609 -597 0
-685 -607 -598 0
-686 -608 -599 0
-687 -609 -600 0
-688 -607 -601 0
-689 -608 -602 0
-690 -609 -603 0
-691 -607 -604 0
-692 -608 -605 0
-693 -609 -606 0
-694 -607 0
-695 -608 0
-696 -609 0
-697 -610 -607 0
-698 -611 -608 0
-699 -612 -609 0
-700 -613 -607 0
-701 -614 -608 0
-702 -615 -609 0
-703 -616 -607 0
-704 -617 -608 0
-705 -618 -609 0
-706 -619 -607 0
-707 -620 -608 0
-708 -621 -609 0
-709 -622 -607 0
-710 -623 -608 0
-711 -624 -609 0
-712 -625 -607 0
-713 -626 -608 0
-714 -627 -609 0
-715 -628 -607 0
-716 -629 -608 0
-717 -630 -609 0
-718 -631 -607 0
-719 -632 -608 0
-720 -633 -609 0
-721 -634 -607 0
-722 -635 -608 0
-723 -636 -609 0
-724 -637 -607 0
-725 -638 -608 0
-726 -639 -609 0
-727 -640 -607 0
-728 -641 -608 0
-729 -642 -609 0
-730 -643 -607 0
-731 -644 -608 0
-732 -645 -609 0
-733 -646 -607 0
-734 -647 -608 0
-735 -648 -609 0
-736 -649 -607 0
-737 -650 -608 0
-738 -651 -609 0
-739 -652 -607 0
-740 -653 -608 0
-741 -654 -609 0
-742 -655 -607 0
-743 -656 -608 0
-744 -657 -609 0
-745 -658 -607 0
-746 -659 -608 0
-747 -660 -609 0
-748 -661 -607 0
-749 -662 -608 0
-750 -663 -609 0
-751 -664 -607 0
-752 -665 -608 0
-753 -666 -609 0
-754 -667 -607 0
-755 -668 -608 0
-756 -669 -609 0
-757 -670 -607 0
-758 -671 -608 0
-759 -672 -609 0
-760 -673 -607 0
-761 -674 -608 0
-762 -675 -609 0
-763 -676 -607 0
-764 -677 -608 0
-765 -678 -609 0
-766 -679 -607 0
-767 -680 -608 0
-768 -681 -609 0
-769 -682 -607 0
-770 -683 -608 0
-771 -684 -609 0
-772 -685 -607 0
-773 -686 -608 0
-774 -687 -609 0
-775 -688 -607 0
-776 -689 -608 0
-777 -690 -609 0
-778 -691 -607 0
-779 -692 -608 0
-780 -693 -609 0
-781 -694 -607 0
-782 -695 -608 0
-783 -696 -609 0
-784 -697 -607 0
-785 -698 -608 0
-786 -699 -609 0
-787 -700 -607 0
-788 -701 -608 0
-789 -702 -609 0
-790 -703 -607 0
-791 -704 -608 0
-792 -705 -609 0
-793 -706 -607 0
-794 -707 -608 0
-795 -708 -609 0
-796 -709 -607 0
-797 -710 -608 0
-798 -711 -609 0
-799 -712 -607 0
-800 -713 -608 0
-801 -714 -609 0
-802 -715 -607 0
-803 -716 -608 0
-804 -717 -609 0
-805 -718 -607 0
-806 -719 -608 0
-807 -720 -609 0
-808 -721 -607 0
-809 -722 -608 0
-810 -723 -609 0
-811 -724 -607 0
-812 -725 -608 0
-813 -726 -609 0
-814 -727 -607 0
-815 -728 -608 0
-816 -729 -609 0
-817 -730 -607 0
-818 -731 -608 0
-819 -732 -609 0
-820 -733 -607 0
-821 -734 -608 0
-822 -735 -609 0
-823 -736 -607 0
-824 -737 -608 0
-825 -738 -609 0
-826 -739 -607 0
-827 -740 -608 0
-828 -741 -609 0
-829 -742 -607 0
-830 -743 -608 0
-831 -744 -609 0
-832 -745 -607 0
-833 -746 -608 0
-834 -747 -609 0
-835 -748 -607 0
-836 -749 -608 0
-837 -750 -609 0
-838 -751 -607 0
-839 -752 -608 0
-840 -753 -609 0
-841 -754 -607 0
-842 -755 -608 0
-843 -756 -609 0
-844 -757 -607 0
-845 -758 -608 0
-846 -759 -609 0
-847 -760 -607 0
-848 -761 -608 0
-849 -762 -609 0
-850 -763 -607 0
-851 -764 -608 0
-852 -765 -609 0
-853 -766 -607 0
-854 -767 -608 0
-855 -768 -609 0
-856 -769 -607 0
-857 -770 -608 0
-858 -771 -609 0
-859 -772 -607 0
-860 -773 -608 0
-861 -774 -609 0
-862 -775 -607 0
-863 -776 -608 0
-864 -777 -609 0
-865 -778 -607 0
-866 -779 -608 0
-867 -780 -609 0
-868 -781 -607 0
-869 -782 -608 0
-870 -783 -609 0
-871 -784 -607 0
-872 -785 -608 0
-873 -786 -609 0
-874 -787 -607 0
-875 -788 -608 0
-876 -789 -609 0
-877 -790 -607 0
-878 -791 -608 0
-879 -792 -609 0
-880 -793 -607 0
-881 -794 -608 0
-882 -795 -609 0
-883 -796 -607 0
-884 -797 -608 0
-885 -798 -609 0
-886 -799 -607 0
-887 -800 -608 0
-888 -801 -609 0
-889 -802 -607 0
-890 -803 -608 0
-891 -804 -609 0
-892 -805 -607 0
-893 -806 -608 0
-894 -807 -609 0
-895 -808 -607 0
-896 -809 -608 0
-897 -810 -609 0
-898 -811 -607 0
-899 -812 -608 0
-900 -813 -609 0
-901 -814 -607 0
-902 -815 -608 0
-903 -816 -609 0
-904 -817 -607 0
-905 -818 -608 0
-906 -819 -609 0
-907 -820 -607 0
-908 -821 -608 0
-909 -822 -609 0
-910 -823 -607 0
-911 -824 -608 0
-912 -825 -609 0
-913 -826 -607 0
-914 -827 -608 0
-915 -828 -609 0
-916 -829 -607 0
-917 -830 -608 0
-918 -831 -609 0
-919 -832 -607 0
-920 -833 -608 0
-921 -834 -609 0
-922 -835 -607 0
-923 -836 -608 0
-924 -837 -609 0
-925 -838 -607 0
-926 -839 -608 0
-927 -840 -609 0
-928 -841 -607 0
-929 -842 -608 0
-930 -843 -609 0
-931 -844 -607 0
-932 -845 -608 0
-933 -846 -609 0
-934 -847 -607 0
-935 -848 -608 0
-936 -849 -609 0
-937 -850 -607 0
-938 -851 -608 0
-939 -852 -609 0
-940 -853 -607 0
-941 -854 -608 0
-942 -855 -609 0
-943 -856 -607 0
-944 -857 -608 0
-945 -858 -609 0
-946 -859 -607 0
-947 -860 -608 0
-948 -861 -609 0
-949 -862 -607 0
-950 -863 -608 0
-951 -864 -609 0
-952 -865 -607 0
-953 -866 -608 0
-954 -867 -609 0
-955 -868 -607 0
-956 -869 -608 0
-957 -870 -609 0
-958 -871 -607 0
-959 -872 -608 0
-960 -873 -609 0
-961 -874 -607 0
-962 -875 -608 0
-963 -876 -609 0
-964 -877 -607 0
-965 -878 -608 0
-966 -879 -609 0
-967 -880 -607 0
-968 -881 -608 0
-969 -882 -609 0
-970 -883 -607 0
-971 -884 -608 0
-972 -885 -609 0
-973 -886 -607 0
-974 -887 -608 0
-975 -888 -609 0
-976 -889 -607 0
-977 -890 -608 0
-978 -891 -609 0
-979 -892 -607 0
-980 -893 -608 0
-981 -894 -609 0
-982 -895 -607 0
-983 -896 -608 0
-984 -897 -609 0
-985 -898 -607 0
-986 -899 -608 0
-987 -900 -609 0
-988 -901 -607 0
-989 -902 -608 0
-990 -903 -609 0
-991 -904 -607 0
-992 -905 -608 0
-993 -906 -609 0
-994 -907 -607 0
-995 -908 -608 0
-996 -909 -609 0
-997 -910 -607 0
-998 -911 -608 0
-999 -912 -609 0
-1000 -913 -607 0
-1001 -914 -608 0
-1002 -915 -609 0
-1003 -916 -607 0
-1004 -917 -608 0
-1005 -918 -609 0
-1006 -919 -607 0
-1007 -920 -608 0
-1008 -921 -609 0
-1009 -922 -607 0
-1010 -923 -608 0
-1011 -924 -609 0
-1012 -925 -607 0
-1013 -926 -608 0
-1014 -927 -609 0
-1015 -928 -607 0
-1016 -929 -608 0
-1017 -930 -609 0
-1018 -931 -607 0
-1019 -932 -608 0
-1020 -933 -609 0
-1021 -934 -607 0
-1022 -935 -608 0
-1023 -936 -609 0
-1024 -937 -607 0
-1025 -938 -608 0
-1026 -939 -609 0
-1027 -940 -607 0
-1028 -941 -608 0
-1029 -942 -609 0
-628 -91 -1 0
-629 -92 -2 0
-630 -93 -3 0
-628 -94 -4 0
-629 -95 -5 0
-630 -96 -6 0
-628 -97 -7 0
-629 -98 -8 0
-630 -99 -9 0
-628 -100 -10 0
-629 -101 -11 0
-630 -102 -12 0
-628 -103 -13 0
-629 -104 -14 0
-630 -105 -15 0
-628 -106 -16 0
-629 -107 -17 0
-630 -108 -18 0
-628 -109 -19 0
-629 -110 -20 0
-630 -111 -21 0
-628 -112 -22 0
-629 -113 -23 0
-630 -114 -24 0
-628 -115 -25 0
-629 -116 -26 0
-630 -117 -27 0
-628 -118 -28 0
-629 -119 -29 0
-630 -120 -30 0
-628 -121 -31 0
-629 -122 -32 0
-630 -123 -33 0
-628 -124 -34 0
-629 -125 -35 0
-630 -126 -36 0
-628 -127 -37 0
-629 -128 -38 0
-630 -129 -39 0
-628 -130 -40 0
-629 -131 -41 0
-630 -132 -42 0
-628 -133 -43 0
-629 -134 -44 0
-630 -135 -45 0
-628 -136 -46 0
-629 -137 -47 0
-630 -138 -48 0
-628 -139 -49 0
-629 -140 -50 0
-630 -141 -51 0
-628 -142 -52 0
-629 -143 -53 0
-630 -144 -54 0
-628 -145 -55 0
-629 -146 -56 0
-630 -147 -57 0
-628 -148 -58 0
-629 -149 -59 0
-630 -150 -60 0
-628 -151 -61 0
-629 -152 -62 0
-630 -153 -63 0
-628 -154 -64 0
-629 -155 -65 0
-630 -156 -66 0
-628 -157 -67 0
-629 -158 -68 0
-630 -159 -69 0
-628 -160 -70 0
-629 -161 -71 0
-630 -162 -72 0
-628 -163 -73 0
-629 -164 -74 0
-630 -165 -75 0
-628 -166 -76 0
-629 -167 -77 0
-630 -168 -78 0
-628 -169 -79 0
-629 -170 -80 0
-630 -171 -81 0
-628 -172 -82 0
-629 -173 -83 0
-630 -174 -84 0
-628 -175 -85 0
-629 -176 -86 0
-630 -177 -87 0
-628 -178 -88 0
-629 -179 -89 0
-630 -180 -90 0
-628 -181 -91 0
-629 -182 -92 0
-630 -183 -93 0
-628 -184 -94 0
-629 -185 -95 0
-630 -186 -96 0
-628 -187 -97 0
-629 -188 -98 0
-630 -189 -99 0
-628 -190 -100 0
-629 -191 -101 0
-630 -192 -102 0
-628 -193 -103 0
-629 -194 -104 0
-630 -195 -105 0
-628 -196 -106 0
-629 -197 -107 0
-630 -198 -108 0
-628 -199 -109 0
-629 -200 -110 0
-630 -201 -111 0
-628 -202 -112 0
-629 -203 -113 0
-630 -204 -114 0
-628 -205 -115 0
-629 -206 -116 0
-630 -207 -117 0
-628 -208 -118 0
-629 -209 -119 0
-630 -210 -120 0
-628 -211 -121 0
-629 -212 -122 0
-630 -213 -123 0
-628 -214 -124 0
-629 -215 -125 0
-630 -216 -126 0
-628 -217 -127 0
-629 -218 -128 0
-630 -219 -129 0
-628 -220 -130 0
-629 -221 -131 0
-630 -222 -132 0
-628 -223 -133 0
-629 -224 -134 0
-630 -225 -135 0
-628 -226 -136 0
-629 -227 -137 0
-630 -228 -138 0
-628 -229 -139 0
-629 -230 -140 0
-630 -231 -141 0
-628 -232 -142 0
-629 -233 -143 0
-630 -234 -144 0
-628 -235 -145 0
-629 -236 -146 0
-630 -237 -147 0
-628 -238 -148 0
-629 -239 -149 0
-630 -240 -150 0
-628 -241 -151 0
-629 -242 -152 0
-630 -243 -153 0
-628 -244 -154 0
-629 -245 -155 0
-630 -246 -156 0
-628 -247 -157 0
-629 -248 -158 0
-630 -249 -159 0
-628 -250 -160 0
-629 -251 -161 0
-630 -252 -162 0
-628 -253 -163 0
-629 -254 -164 0
-630 -255 -165 0
-628 -256 -166 0
-629 -257 -167 0
-630 -258 -168 0
-628 -259 -169 0
-629 -260 -170 0
-630 -261 -171 0
-628 -262 -172 0
-629 -263 -173 0
-630 -264 -174 0
-628 -265 -175 0
-629 -266 -176 0
-630 -267 -177 0
-628 -268 -178 0
-629 -269 -179 0
-630 -270 -180 0
-628 -271 -181 0
-629 -272 -182 0
-630 -273 -183 0
-628 -274 -184 0
-629 -275 -185 0
-630 -276 -186 0
-628 -277 -187 0
-629 -278 -188 0
-630 -279 -189 0
-628 -280 -190 0
-629 -281 -191 0
-630 -282 -192 0
-628 -283 -193 0
-629 -284 -194 0
-630 -285 -195 0
-628 -286 -196 0
-629 -287 -197 0
-630 -288 -198 0
-628 -289 -199 0
-629 -290 -200 0
-630 -291 -201 0
-628 -292 -202 0
-629 -293 -203 0
-630 -294 -204 0
-628 -295 -205 0
-629 -296 -206 0
-630 -297 -207 0
-628 -298 -208 0
-629 -299 -209 0
-630 -300 -210 0
-628 -301 -211 0
-629 -302 -212 0
-630 -303 -213 0
-628 -304 -214 0
-629 -305 -215 0
-630 -306 -216 0
-628 -307 -217 0
-629 -308 -218 0
-630 -309 -219 0
-628 -310 -220 0
-629 -311 -221 0
-630 -312 -222 0
-628 -313 -223 0
-629 -314 -224 0
-630 -315 -225 0
-628 -316 -226 0
-629 -317 -227 0
-630 -318 -228 0
-628 -319 -229 0
-629 -320 -230 0
-630 -321 -231 0
-628 -322 -232 0
-629 -323 -233 0
-630 -324 -234 0
-628 -325 -235 0
-629 -326 -236 0
-630 -327 -237 0
-628 -328 -238 0
-629 -329 -239 0
-630 -330 -240 0
-628 -331 -241 0
-629 -332 -242 0
-630 -333 -243 0
-628 -334 -244 0
-629 -335 -245 0
-630 -336 -246 0
-628 -337 -247 0
-629 -338 -248 0
-630 -339 -249 0
-628 -340 -250 0
-629 -341 -251 0
-630 -342 -252 0
-628 -343 -253 0
-629 -344 -254 0
-630 -345 -255 0
-628 -346 -256 0
-629 -347 -257 0
-630 -348 -258 0
-628 -349 -259 0
-629 -350 -260 0
-630 -351 -261 0
-628 -352 -262 0
-629 -353 -263 0
-630 -354 -264 0
-628 -355 -265 0
-629 -356 -266 0
-630 -357 -267 0
-628 -358 -268 0
-629 -359 -269 0
-630 -360 -270 0
-628 -361 -271 0
-629 -362 -272 0
-630 -363 -273 0
-628 -364 -274 0
-629 -365 -275 0
-630 -366 -276 0
-628 -367 -277 0
-629 -368 -278 0
-630 -369 -279 0
-628 -370 -280 0
-629 -371 -281 0
-630 -372 -282 0
-628 -373 -283 0
-629 -374 -284 0
-630 -375 -285 0
-628 -376 -286 0
-629 -377 -287 0
-630 -378 -288 0
-628 -379 -289 0
-629 -380 -290 0
-630 -381 -291 0
-628 -382 -292 0
-629 -383 -293 0
-630 -384 -294 0
-628 -385 -295 0
-629 -386 -296 0
-630 -387 -297 0
-628 -388 -298 0
-629 -389 -299 0
-630 -390 -300 0
-628 -391 -301 0
-629 -392 -302 0
-630 -393 -303 0
-628 -394 -304 0
-629 -395 -305 0
-630 -396 -306 0
-628 -397 -307 0
-629 -398 -308 0
-630 -399 -309 0
-628 -400 -310 0
-629 -401 -311 0
-630 -402 -312 0
-628 -403 -313 0
-629 -404 -314 0
-630 -405 -315 0
-628 -406 -316 0
-629 -407 -317 0
-630 -408 -318 0
-628 -409 -319 0
-629 -410 -320 0
-630 -411 -321 0
-628 -412 -322 0
-629 -413 -323 0
-630 -414 -324 0
-628 -415 -325 0
-629 -416 -326 0
-630 -417 -327 0
-628 -418 -328 0
-629 -419 -329 0
-630 -420 -330 0
-628 -421 -331 0
-629 -422 -332 0
-630 -423 -333 0
-628 -424 -334 0
-629 -425 -335 0
-630 -426 -336 0
-628 -427 -337 0
-629 -428 -338 0
-630 -429 -339 0
-628 -430 -340 0
-629 -431 -341 0
-630 -432 -342 0
-628 -433 -343 0
-629 -434 -344 0
-630 -435 -345 0
-628 -436 -346 0
-629 -437 -347 0
-630 -438 -348 0
-628 -439 -349 0
-629 -440 -350 0
-630 -441 -351 0
-628 -442 -352 0
-629 -443 -353 0
-630 -444 -354 0
-628 -445 -355 0
-629 -446 -356 0
-630 -447 -357 0
-628 -448 -358 0
-629 -449 -359 0
-630 -450 -360 0
-628 -451 -361 0
-629 -452 -362 0
-630 -453 -363 0
-628 -454 -364 0
-629 -455 -365 0
-630 -456 -366 0
-628 -457 -367 0
-629 -458 -368 0
-630 -459 -369 0
-628 -460 -370 0
-629 -461 -371 0
-630 -462 -372 0
-628 -463 -373 0
-629 -464 -374 0
-630 -465 -375 0
-628 -466 -376 0
-629 -467 -377 0
-630 -468 -378 0
-628 -469 -379 0
-629 -470 -380 0
-630 -471 -381 0
-628 -472 -382 0
-629 -473 -383 0
-630 -474 -384 0
-628 -475 -385 0
-629 -476 -386 0
-630 -477 -387 0
-628 -478 -388 0
-629 -479 -389 0
-630 -480 -390 0
-628 -481 -391 0
-629 -482 -392 0
-630 -483 -393 0
-628 -484 -394 0
-629 -485 -395 0
-630 -486 -396 0
-628 -487 -397 0
-629 -488 -398 0
-630 -489 -399 0
-628 -490 -400 0
-629 -491 -401 0
-630 -492 -402 0
-628 -493 -403 0
-629 -494 -404 0
-630 -495 -405 0
-628 -496 -406 0
-629 -497 -407 0
-630 -498 -408 0
-628 -499 -409 0
-629 -500 -410 0
-630 -501 -411 0
-628 -502 -412 0
-629 -503 -413 0
-630 -504 -414 0
-628 -505 -415 0
-629 -506 -416 0
-630 -507 -417 0
-628 -508 -418 0
-629 -509 -419 0
-630 -510 -420 0
-628 -511 -421 0
-629 -512 -422 0
-630 -513 -423 0
-628 -514 -424 0
-629 -515 -425 0
-630 -516 -426 0
-628 -517 -427 0
-629 -518 -428 0
-630 -519 -429 0
-628 -520 -430 0
-629 -521 -431 0
-630 -522 -432 0
-628 -523 -433 0
-629 -524 -434 0
-630 -525 -435 0
-628 -526 -436 0
-629 -527 -437 0
-630 -528 -438 0
-628 -529 -439 0
-629 -530 -440 0
-630 -531 -441 0
-628 -532 -442 0
-629 -533 -443 0
-630 -534 -444 0
-628 -535 -445 0
-629 -536 -446 0
-630 -537 -447 0
-628 -538 -448 0
-629 -539 -449 0
-630 -540 -450 0
-628 -541 -451 0
-629 -542 -452 0
-630 -543 -453 0
-628 -544 -454 0
-629 -545 -455 0
-630 -546 -456 0
-628 -547 -457 0
-629 -548 -458 0
-630 -549 -459 0
-628 -550 -460 0
-629 -551 -461 0
-630 -552 -462 0
-628 -553 -463 0
-629 -554 -464 0
-630 -555 -465 0
-628 -556 -466 0
-629 -557 -467 0
-630 -558 -468 0
-628 -559 -469 0
-629 -560 -470 0
-630 -561 -471 0
-628 -562 -472 0
-629 -563 -473 0
-630 -564 -474 0
-628 -565 -475 0
-629 -566 -476 0
-630 -567 -477 0
-628 -568 -478 0
-629 -569 -479 0
-630 -570 -480 0
-628 -571 -481 0
-629 -572 -482 0
-630 -573 -483 0
-628 -574 -484 0
-629 -575 -485 0
-630 -576 -486 0
-628 -577 -487 0
-629 -578 -488 0
-630 -579 -489 0
-628 -580 -490 0
-629 -581 -491 0
-630 -582 -492 0
-628 -583 -493 0
-629 -584 -494 0
-630 -585 -495 0
-628 -586 -496 0
-629 -587 -497 0
-630 -588 -498 0
-628 -589 -499 0
-629 -590 -500 0
-630 -591 -501 0
-628 -592 -502 0
-629 -593 -503 0
-630 -594 -504 0
-628 -595 -505 0
-629 -596 -506 0
-630 -597 -507 0
-628 -598 -508 0
-629 -599 -509 0
-630 -600 -510 0
-628 -601 -511 0
-629 -602 -512 0
-630 -603 -513 0
-628 -604 -514 0
-629 -605 -515 0
-630 -606 -516 0
-628 -607 -517 0
-629 -608 -518 0
-630 -609 -519 0
-628 -610 -520 0
-629 -611 -521 0
-630 -612 -522 0
-628 -613 -523 0
-629 -614 -524 0
-630 -615 -525 0
-628 -616 -526 0
-629 -617 -527 0
-630 -618 -528 0
-628 -619 -529 0
-629 -620 -530 0
-630 -621 -531 0
-628 -622 -532 0
-629 -623 -533 0
-630 -624 -534 0
-628 -625 -535 0
-629 -626 -536 0
-630 -627 -537 0
-628 -538 0
-629 -539 0
-630 -540 0
-631 -628 -541 0
-632 -629 -542 0
-633 -630 -543 0
-634 -628 -544 0
-635 -629 -545 0
-636 -630 -546 0
-637 -628 -547 0
-638 -629 -548 0
-639 -630 -549 0
-640 -628 -550 0
-641 -629 -551 0
-642 -630 -552 0
-643 -628 -553 0
-644 -629 -554 0
-645 -630 -555 0
-646 -628 -556 0
-647 -629 -557 0
-648 -630 -558 0
-649 -628 -559 0
-650 -629 -560 0
-651 -630 -561 0
-652 -628 -562 0
-653 -629 -563 0
-654 -630 -564 0
-655 -628 -565 0
-656 -629 -566 0
-657 -630 -567 0
-658 -628 -568 0
-659 -629 -569 0
-660 -630 -570 0
-661 -628 -571 0
-662 -629 -572 0
-663 -630 -573 0
-664 -628 -574 0
-665 -629 -575 0
-666 -630 -576 0
-667 -628 -577 0
-668 -629 -578 0
-669 -630 -579 0
-670 -628 -580 0
-671 -629 -581 0
-672 -630 -582 0
-673 -628 -583 0
-674 -629 -584 0
-675 -630 -585 0
-676 -628 -586 0
-677 -629 -587 0
-678 -630 -588 0
-679 -628 -589 0
-680 -629 -590 0
-681 -630 -591 0
-682 -628 -592 0
-683 -629 -593 0
-684 -630 -594 0
-685 -628 -595 0
-686 -629 -596 0
-687 -630 -597 0
-688 -628 -598 0
-689 -629 -599 0
-690 -630 -600 0
-691 -628 -601 0
-692 -629 -602 0
-693 -630 -603 0
-694 -628 -604 0
-695 -629 -605 0
-696 -630 -606 0
-697 -628 -607 0
-698 -629 -608 0
-699 -630 -609 0
-700 -628 -610 0
-701 -629 -611 0
-702 -630 -612 0
-703 -628 -613 0
-704 -629 -614 0
-705 -630 -615 0
-706 -628 -616 0
-707 -629 -617 0
-708 -630 -618 0
-709 -628 -619 0
-710 -629 -620 0
-711 -630 -621 0
-712 -628 -622 0
-713 -629 -623 0
-714 -630 -624 0
-715 -628 -625 0
-716 -629 -626 0
-717 -630 -627 0
-718 -628 0
-719 -629 0
-720 -630 0
-721 -631 -628 0
-722 -632 -629 0
-723 -633 -630 0
-724 -634 -628 0
-725 -635 -629 0
-726 -636 -630 0
-727 -637 -628 0
-728 -638 -629 0
-729 -639 -630 0
-730 -640 -628 0
-731 -641 -629 0
-732 -642 -630 0
-733 -643 -628 0
-734 -644 -629 0
-735 -645 -630 0
-736 -646 -628 0
-737 -647 -629 0
-738 -648 -630 0
-739 -649 -628 0
-740 -650 -629 0
-741 -651 -630 0
-742 -652 -628 0
-743 -653 -629 0
-744 -654 -630 0
-745 -655 -628 0
-746 -656 -629 0
-747 -657 -630 0
-748 -658 -628 0
-749 -659 -629 0
-750 -660 -630 0
-751 -661 -628 0
-752 -662 -629 0
-753 -663 -630 0
-754 -664 -628 0
-755 -665 -629 0
-756 -666 -630 0
-757 -667 -628 0
-758 -668 -629 0
-759 -669 -630 0
-760 -670 -628 0
-761 -671 -629 0
-762 -672 -630 0
-763 -673 -628 0
-764 -674 -629 0
-765 -675 -630 0
-766 -676 -628 0
-767 -677 -629 0
-768 -678 -630 0
-769 -679 -628 0
-770 -680 -629 0
-771 -681 -630 0
-772 -682 -628 0
-773 -683 -629 0
-774 -684 -630 0
-775 -685 -628 0
-776 -686 -629 0
-777 -687 -630 0
-778 -688 -628 0
-779 -689 -629 0
-780 -690 -630 0
-781 -691 -628 0
-782 -692 -629 0
-783 -693 -630 0
-784 -694 -628 0
-785 -695 -629 0
-786 -696 -630 0
-787 -697 -628 0
-788 -698 -629 0
-789 -699 -630 0
-790 -700 -628 0
-791 -701 -629 0
-792 -702 -630 0
-793 -703 -628 0
-794 -704 -629 0
-795 -705 -630 0
-796 -706 -628 0
-797 -707 -629 0
-798 -708 -630 0
-799 -709 -628 0
-800 -710 -629 0
-801 -711 -630 0
-802 -712 -628 0
-803 -713 -629 0
-804 -714 -630 0
-805 -715 -628 0
-806 -716 -629 0
-807 -717 -630 0
-808 -718 -628 0
-809 -719 -629 0
-810 -720 -630 0
-811 -721 -628 0
-812 -722 -629 0
-813 -723 -630 0
-814 -724 -628 0
-815 -725 -629 0
-816 -726 -630 0
-817 -727 -628 0
-818 -728 -629 0
-819 -729 -630 0
-820 -730 -628 0
-821 -731 -629 0
-822 -732 -630 0
-823 -733 -628 0
-824 -734 -629 0
-825 -735 -630 0
-826 -736 -628 0
-827 -737 -629 0
-828 -738 -630 0
-829 -739 -628 0
-830 -740 -629 0
-831 -741 -630 0
-832 -742 -628 0
-833 -743 -629 0
-834 -744 -630 0
-835 -745 -628 0
-836 -746 -629 0
-837 -747 -630 0
-838 -748 -628 0
-839 -749 -629 0
-840 -750 -630 0
-841 -751 -628 0
-842 -752 -629 0
-843 -753 -630 0
-844 -754 -628 0
-845 -755 -629 0
-846 -756 -630 0
-847 -757 -628 0
-848 -758 -629 0
-849 -759 -630 0
-850 -760 -628 0
-851 -761 -629 0
-852 -762 -630 0
-853 -763 -628 0
-854 -764 -629 0
-855 -765 -630 0
-856 -766 -628 0
-857 -767 -629 0
-858 -768 -630 0
-859 -769 -628 0
-860 -770 -629 0
-861 -771 -630 0
-862 -772 -628 0
-863 -773 -629 0
-864 -774 -630 0
-865 -775 -628 0
-866 -776 -629 0
-867 -777 -630 0
-868 -778 -628 0
-869 -779 -629 0
-870 -780 -630 0
-871 -781 -628 0
-872 -782 -629 0
-873 -783 -630 0
-874 -784 -628 0
-875 -785 -629 0
-876 -786 -630 0
-877 -787 -628 0
-878 -788 -629 0
-879 -789 -630 0
-880 -790 -628 0
-881 -791 -629 0
-882 -792 -630 0
-883 -793 -628 0
-884 -794 -629 0
-885 -795 -630 0
-886 -796 -628 0
-887 -797 -629 0
-888 -798 -630 0
-889 -799 -628 0
-890 -800 -629 0
-891 -801 -630 0
-892 -802 -628 0
-893 -803 -629 0
-894 -804 -630 0
-895 -805 -628 0
-896 -806 -629 0
-897 -807 -630 0
-898 -808 -628 0
-899 -809 -629 0
-900 -810 -630 0
-901 -811 -628 0
-902 -812 -629 0
-903 -813 -630 0
-904 -814 -628 0
-905 -815 -629 0
-906 -816 -630 0
-907 -817 -628 0
-908 -818 -629 0
-909 -819 -630 0
-910 -820 -628 0
-911 -821 -629 0
-912 -822 -630 0
-913 -823 -628 0
-914 -824 -629 0
-915 -825 -630 0
-916 -826 -628 0
-917 -827 -629 0
-918 -828 -630 0
-919 -829 -628 0
-920 -830 -629 0
-921 -831 -630 0
-922 -832 -628 0
-923 -833 -629 0
-924 -834 -630 0
-925 -835 -628 0
-926 -836 -629 0
-927 -837 -630 0
-928 -838 -628 0
-929 -839 -629 0
-930 -840 -630 0
-931 -841 -628 0
-932 -842 -629 0
-933 -843 -630 0
-934 -844 -628 0
-935 -845 -629 0
-936 -846 -630 0
-937 -847 -628 0
-938 -848 -629 0
-939 -849 -630 0
-940 -850 -628 0
-941 -851 -629 0
-942 -852 -630 0
-943 -853 -628 0
-944 -854 -629 0
-945 -855 -630 0
-946 -856 -628 0
-947 -857 -629 0
-948 -858 -630 0
-949 -859 -628 0
-950 -860 -629 0
-951 -861 -630 0
-952 -862 -628 0
-953 -863 -629 0
-954 -864 -630 0
-955 -865 -628 0
-956 -866 -629 0
-957 -867 -630 0
-958 -868 -628 0
-959 -869 -629 0
-960 -870 -630 0
-961 -871 -628 0
-962 -872 -629 0
-963 -873 -630 0
-964 -874 -628 0
-965 -875 -629 0
-966 -876 -630 0
-967 -877 -628 0
-968 -878 -629 0
-969 -879 -630 0
-970 -880 -628 0
-971 -881 -629 0
-972 -882 -630 0
-973 -883 -628 0
-974 -884 -629 0
-975 -885 -630 0
-976 -886 -628 0
-977 -887 -629 0
-978 -888 -630 0
-979 -889 -628 0
-980 -890 -629 0
-981 -891 -630 0
-982 -892 -628 0
-983 -893 -629 0
-984 -894 -630 0
-985 -895 -628 0
-986 -896 -629 0
-987 -897 -630 0
-988 -898 -628 0
-989 -899 -629 0
-990 -900 -630 0
-991 -901 -628 0
-992 -902 -629 0
-993 -903 -630 0
-994 -904 -628 0
-995 -905 -629 0
-996 -906 -630 0
-997 -907 -628 0
-998 -908 -629 0
-999 -909 -630 0
-1000 -910 -628 0
-1001 -911 -629 0
-1002 -912 -630 0
-1003 -913 -628 0
-1004 -914 -629 0
-1005 -915 -630 0
-1006 -916 -628 0
-1007 -917 -629 0
-1008 -918 -630 0
-1009 -919 -628 0
-1010 -920 -629 0
-1011 -921 -630 0
-1012 -922 -628 0
-1013 -923 -629 0
-1014 -924 -630 0
-1015 -925 -628 0
-1016 -926 -629 0
-1017 -927 -630 0
-1018 -928 -628 0
-1019 -929 -629 0
-1020 -930 -630 0
-1021 -931 -628 0
-1022 -932 -629 0
-1023 -933 -630 0
-1024 -934 -628 0
-1025 -935 -629 0
-1026 -936 -630 0
-1027 -937 -628 0
-1028 -938 -629 0
-1029 -939 -630 0
-649 -94 -1 0
-650 -95 -2 0
-651 -96 -3 0
-649 -97 -4 0
-650 -98 -5 0
-651 -99 -6 0
-649 -100 -7 0
-650 -101 -8 0
-651 -102 -9 0
-649 -103 -10 0
-650 -104 -11 0
-651 -105 -12 0
-649 -106 -13 0
-650 -107 -14 0
-651 -108 -15 0
-649 -109 -16 0
-650 -110 -17 0
-651 -111 -18 0
-649 -112 -19 0
-650 -113 -20 0
-651 -114 -21 0
-649 -115 -22 0
-650 -116 -23 0
-651 -117 -24 0
-649 -118 -25 0
-650 -119 -26 0
-651 -120 -27 0
-649 -121 -28 0
-650 -122 -29 0
-651 -123 -30 0
-649 -124 -31 0
-650 -125 -32 0
-651 -126 -33 0
-649 -127 -34 0
-650 -128 -35 0
-651 -129 -36 0
-649 -130 -37 0
-650 -131 -38 0
-651 -132 -39 0
-649 -133 -40 0
-650 -134 -41 0
-651 -135 -42 0
-649 -136 -43 0
-650 -137 -44 0
-651 -138 -45 0
-649 -139 -46 0
-650 -140 -47 0
-651 -141 -48 0
-649 -142 -49 0
-650 -143 -50 0
-651 -144 -51 0
-649 -145 -52 0
-650 -146 -53 0
-651 -147 -54 0
-649 -148 -55 0
-650 -149 -56 0
-651 -150 -57 0
-649 -151 -58 0
-650 -152 -59 0
-651 -153 -60 0
-649 -154 -61 0
-650 -155 -62 0
-651 -156 -63 0
-649 -157 -64 0
-650 -158 -65 0
-651 -159 -66 0
-649 -160 -67 0
-650 -161 -68 0
-651 -162 -69 0
-649 -163 -70 0
-650 -164 -71 0
-651 -165 -72 0
-649 -166 -73 0
-650 -167 -74 0
-651 -168 -75 0
-649 -169 -76 0
-650 -170 -77 0
-651 -171 -78 0
-649 -172 -79 0
-650 -173 -80 0
-651 -174 -81 0
-649 -175 -82 0
-650 -176 -83 0
-651 -177 -84 0
-649 -178 -85 0
-650 -179 -86 0
-651 -180 -87 0
-649 -181 -88 0
-650 -182 -89 0
-651 -183 -90 0
-649 -184 -91 0
-650 -185 -92 0
-651 -186 -93 0
-649 -187 -94 0
-650 -188 -95 0
-651 -189 -96 0
-649 -190 -97 0
-650 -191 -98 0
-651 -192 -99 0
-649 -193 -100 0
-650 -194 -101 0
-651 -195 -102 0
-649 -196 -103 0
-650 -197 -104 0
-651 -198 -105 0
-649 -199 -106 0
-650 -200 -107 0
-651 -201 -108 0
-649 -202 -109 0
-650 -203 -110 0
-651 -204 -111 0
-649 -205 -112 0
-650 -206 -113 0
-651 -207 -114 0
-649 -208 -115 0
-650 -209 -116 0
-651 -210 -117 0
-649 -211 -118 0
-650 -212 -119 0
-651 -213 -120 0
-649 -214 -121 0
-650 -215 -122 0
-651 -216 -123 0
-649 -217 -124 0
-650 -218 -125 0
-651 -219 -126 0
-649 -220 -127 0
-650 -221 -128 0
-651 -222 -129 0
-649 -223 -130 0
-650 -224 -131 0
-651 -225 -132 0
-649 -226 -133 0
-650 -227 -134 0
-651 -228 -135 0
-649 -229 -136 0
-650 -230 -137 0
-651 -231 -138 0
-649 -232 -139 0
-650 -233 -140 0
-651 -234 -141 0
-649 -235 -142 0
-650 -236 -143 0
-651 -237 -144 0
-649 -238 -145 0
-650 -239 -146 0
-651 -240 -147 0
-649 -241 -148 0
-650 -242 -149 0
-651 -243 -150 0
-649 -244 -151 0
-650 -245 -152 0
-651 -246 -153 0
-649 -247 -154 0
-650 -248 -155 0
-651 -249 -156 0
-649 -250 -157 0
-650 -251 -158 0
-651 -252 -159 0
-649 -253 -160 0
-650 -254 -161 0
-651 -255 -162 0
-649 -256 -163 0
-650 -257 -164 0
-651 -258 -165 0
-649 -259 -166 0
-650 -260 -167 0
-651 -261 -168 0
-649 -262 -169 0
-650 -263 -170 0
-651 -264 -171 0
-649 -265 -172 0
-650 -266 -173 0
-651 -267 -174 0
-649 -268 -175 0
-650 -269 -176 0
-651 -270 -177 0
-649 -271 -178 0
-650 -272 -179 0
-651 -273 -180 0
-649 -274 -181 0
-650 -275 -182 0
-651 -276 -183 0
-649 -277 -184 0
-650 -278 -185 0
-651 -279 -186 0
-649 -280 -187 0
-650 -281 -188 0
-651 -282 -189 0
-649 -283 -190 0
-650 -284 -191 0
-651 -285 -192 0
-649 -286 -193 0
-650 -287 -194 0
-651 -288 -195 0
-649 -289 -196 0
-650 -290 -197 0
-651 -291 -198 0
-649 -292 -199 0
-650 -293 -200 0
-651 -294 -201 0
-649 -295 -202 0
-650 -296 -203 0
-651 -297 -204 0
-649 -298 -205 0
-650 -299 -206 0
-651 -300 -207 0
-649 -301 -208 0
-650 -302 -209 0
-651 -303 -210 0
-649 -304 -211 0
-650 -305 -212 0
-651 -306 -213 0
-649 -307 -214 0
-650 -308 -215 0
-651 -309 -216 0
-649 -310 -217 0
-650 -311 -218 0
-651 -312 -219 0
-649 -313 -220 0
-650 -314 -221 0
-651 -315 -222 0
-649 -316 -223 0
-650 -317 -224 0
-651 -318 -225 0
-649 -319 -226 0
-650 -320 -227 0
-651 -321 -228 0
-649 -322 -229 0
-650 -323 -230 0
-651 -324 -231 0
-649 -325 -232 0
-650 -326 -233 0
-651 -327 -234 0
-649 -328 -235 0
-650 -329 -236 0
-651 -330 -237 0
-649 -331 -238 0
-650 -332 -239 0
-651 -333 -240 0
-649 -334 -241 0
-650 -335 -242 0
-651 -336 -243 0
-649 -337 -244 0
-650 -338 -245 0
-651 -339 -246 0
-649 -340 -247 0
-650 -341 -248 0
-651 -342 -249 0
-649 -343 -250 0
-650 -344 -251 0
-651 -345 -252 0
-649 -346 -253 0
-650 -347 -254 0
-651 -348 -255 0
-649 -349 -256 0
-650 -350 -257 0
-651 -351 -258 0
-649 -352 -259 0
-650 -353 -260 0
-651 -354 -261 0
-649 -355 -262 0
-650 -356 -263 0
-651 -357 -264 0
-649 -358 -265 0
-650 -359 -266 0
-651 -360 -267 0
-649 -361 -268 0
-650 -362 -269 0
-651 -363 -270 0
-649 -364 -271 0
-650 -365 -272 0
-651 -366 -273 0
-649 -367 -274 0
-650 -368 -275 0
-651 -369 -276 0
-649 -370 -277 0
-650 -371 -278 0
-651 -372 -279 0
-649 -373 -280 0
-650 -374 -281 0
-651 -375 -282 0
-649 -376 -283 0
-650 -377 -284 0
-651 -378 -285 0
-649 -379 -286 0
-650 -380 -287 0
-651 -381 -288 0
-649 -382 -289 0
-650 -383 -290 0
-651 -384 -291 0
-649 -385 -292 0
-650 -386 -293 0
-651 -387 -294 0
-649 -388 -295 0
-650 -389 -296 0
-651 -390 -297 0
-649 -391 -298 0
-650 -392 -299 0
-651 -393 -300 0
-649 -394 -301 0
-650 -395 -302 0
-651 -396 -303 0
-649 -397 -304 0
-650 -398 -305 0
-651 -399 -306 0
-649 -400 -307 0
-650 -401 -308 0
-651 -402 -309 0
-649 -403 -310 0
-650 -404 -311 0
-651 -405 -312 0
-649 -406 -313 0
-650 -407 -314 0
-651 -408 -315 0
-649 -409 -316 0
-650 -410 -317 0
-651 -411 -318 0
-649 -412 -319 0
-650 -413 -320 0
-651 -414 -321 0
-649 -415 -322 0
-650 -416 -323 0
-651 -417 -324 0
-649 -418 -325 0
-650 -419 -326 0
-651 -420 -327 0
-649 -421 -328 0
-650 -422 -329 0
-651 -423 -330 0
-649 -424 -331 0
-650 -425 -332 0
-651 -426 -333 0
-649 -427 -334 0
-650 -428 -335 0
-651 -429 -336 0
-649 -430 -337 0
-650 -431 -338 0
-651 -432 -339 0
-649 -433 -340 0
-650 -434 -341 0
-651 -435 -342 0
-649 -436 -343 0
-650 -437 -344 0
-651 -438 -345 0
-649 -439 -346 0
-650 -440 -347 0
-651 -441 -348 0
-649 -442 -349 0
-650 -443 -350 0
-651 -444 -351 0
-649 -445 -352 0
-650 -446 -353 0
-651 -447 -354 0
-649 -448 -355 0
-650 -449 -356 0
-651 -450 -357 0
-649 -451 -358 0
-650 -452 -359 0
-651 -453 -360 0
-649 -454 -361 0
-650 -455 -362 0
-651 -456 -363 0
-649 -457 -364 0
-650 -458 -365 0
-651 -459 -366 0
-649 -460 -367 0
-650 -461 -368 0
-651 -462 -369 0
-649 -463 -370 0
-650 -464 -371 0
-651 -465 -372 0
-649 -466 -373 0
-650 -467 -374 0
-651 -468 -375 0
-649 -469 -376 0
-650 -470 -377 0
-651 -471 -378 0
-649 -472 -379 0
-650 -473 -380 0
-651 -474 -381 0
-649 -475 -382 0
-650 -476 -383 0
-651 -477 -384 0
-649 -478 -385 0
-650 -479 -386 0
-651 -480 -387 0
-649 -481 -388 0
-650 -482 -389 0
-651 -483 -390 0
-649 -484 -391 0
-650 -485 -392 0
-651 -486 -393 0
-649 -487 -394 0
-650 -488 -395 0
-651 -489 -396 0
-649 -490 -397 0
-650 -491 -398 0
-651 -492 -399 0
-649 -493 -400 0
-650 -494 -401 0
-651 -495 -402 0
-649 -496 -403 0
-650 -497 -404 0
-651 -498 -405 0
-649 -499 -406 0
-650 -500 -407 0
-651 -501 -408 0
-649 -502 -409 0
-650 -503 -410 0
-651 -504 -411 0
-649 -505 -412 0
-650 -506 -413 0
-651 -507 -414 0
-649 -508 -415 0
-650 -509 -416 0
-651 -510 -417 0
-649 -511 -418 0
-650 -512 -419 0
-651 -513 -420 0
-649 -514 -421 0
-650 -515 -422 0
-651 -516 -423 0
-649 -517 -424 0
-650 -518 -425 0
-651 -519 -426 0
-649 -520 -427 0
-650 -521 -428 0
-651 -522 -429 0
-649 -523 -430 0
-650 -524 -431 0
-651 -525 -432 0
-649 -526 -433 0
-650 -527 -434 0
-651 -528 -435 0
-649 -529 -436 0
-650 -530 -437 0
-651 -531 -438 0
-649 -532 -439 0
-650 -533 -440 0
-651 -534 -441 0
-649 -535 -442 0
-650 -536 -443 0
-651 -537 -444 0
-649 -538 -445 0
-650 -539 -446 0
-651 -540 -447 0
-649 -541 -448 0
-650 -542 -449 0
-651 -543 -450 0
-649 -544 -451 0
-650 -545 -452 0
-651 -546 -453 0
-649 -547 -454 0
-650 -548 -455 0
-651 -549 -456 0
-649 -550 -457 0
-650 -551 -458 0
-651 -552 -459 0
-649 -553 -460 0
-650 -554 -461 0
-651 -555 -462 0
-649 -556 -463 0
-650 -557 -464 0
-651 -558 -465 0
-649 -559 -466 0
-650 -560 -467 0
-651 -561 -468 0
-649 -562 -469 0
-650 -563 -470 0
-651 -564 -471 0
-649 -565 -472 0
-650 -566 -473 0
-651 -567 -474 0
-649 -568 -475 0
-650 -569 -476 0
-651 -570 -477 0
-649 -571 -478 0
-650 -572 -479 0
-651 -573 -480 0
-649 -574 -481 0
-650 -575 -482 0
-651 -576 -483 0
-649 -577 -484 0
-650 -578 -485 0
-651 -579 -486 0
-649 -580 -487 0
-650 -581 -488 0
-651 -582 -489 0
-649 -583 -490 0
-650 -584 -491 0
-651 -585 -492 0
-649 -586 -493 0
-650 -587 -494 0
-651 -588 -495 0
-649 -589 -496 0
-650 -590 -497 0
-651 -591 -498 0
-649 -592 -499 0
-650 -593 -500 0
-651 -594 -501 0
-649 -595 -502 0
-650 -596 -503 0
-651 -597 -504 0
-649 -598 -505 0
-650 -599 -506 0
-651 -600 -507 0
-649 -601 -508 0
-650 -602 -509 0
-651 -603 -510 0
-649 -604 -511 0
-650 -605 -512 0
-651 -606 -513 0
-649 -607 -514 0
-650 -608 -515 0
-651 -609 -516 0
-649 -610 -517 0
-650 -611 -518 0
-651 -612 -519 0
-649 -613 -520 0
-650 -614 -521 0
-651 -615 -522 0
-649 -616 -523 0
-650 -617 -524 0
-651 -618 -525 0
-649 -619 -526 0
-650 -620 -527 0
-651 -621 -528 0
-649 -622 -529 0
-650 -623 -530 0
-651 -624 -531 0
-649 -625 -532 0
-650 -626 -533 0
-651 -627 -534 0
-649 -628 -535 0
-650 -629 -536 0
-651 -630 -537 0
-649 -631 -538 0
-650 -632 -539 0
-651 -633 -540 0
-649 -634 -541 0
-650 -635 -542 0
-651 -636 -543 0
-649 -637 -544 0
-650 -638 -545 0
-651 -639 -546 0
-649 -640 -547 0
-650 -641 -548 0
-651 -642 -549 0
-649 -643 -550 0
-650 -644 -551 0
-651 -645 -552 0
-649 -646 -553 0
-650 -647 -554 0
-651 -648 -555 0
-649 -556 0
-650 -557 0
-651 -558 0
-652 -649 -559 0
-653 -650 -560 0
-654 -651 -561 0
-655 -649 -562 0
-656 -650 -563 0
-657 -651 -564 0
-658 -649 -565 0
-659 -650 -566 0
-660 -651 -567 0
-661 -649 -568 0
-662 -650 -569 0
-663 -651 -570 0
-664 -649 -571 0
-665 -650 -572 0
-666 -651 -573 0
-667 -649 -574 0
-668 -650 -575 0
-669 -651 -576 0
-670 -649 -577 0
-671 -650 -578 0
-672 -651 -579 0
-673 -649 -580 0
-674 -650 -581 0
-675 -651 -582 0
-676 -649 -583 0
-677 -650 -584 0
-678 -651 -585 0
-679 -649 -586 0
-680 -650 -587 0
-681 -651 -588 0
-682 -649 -589 0
-683 -650 -590 0
-684 -651 -591 0
-685 -649 -592 0
-686 -650 -593 0
-687 -651 -594 0
-688 -649 -595 0
-689 -650 -596 0
-690 -651 -597 0
-691 -649 -598 0
-692 -650 -599 0
-693 -651 -600 0
-694 -649 -601 0
-695 -650 -602 0
-696 -651 -603 0
-697 -649 -604 0
-698 -650 -605 0
-699 -651 -606 0
-700 -649 -607 0
-701 -650 -608 0
-702 -651 -609 0
-703 -649 -610 0
-704 -650 -611 0
-705 -651 -612 0
-706 -649 -613 0
-707 -650 -614 0
-708 -651 -615 0
-709 -649 -616 0
-710 -650 -617 0
-711 -651 -618 0
-712 -649 -619 0
-713 -650 -620 0
-714 -651 -621 0
-715 -649 -622 0
-716 -650 -623 0
-717 -651 -624 0
-718 -649 -625 0
-719 -650 -626 0
-720 -651 -627 0
-721 -649 -628 0
-722 -650 -629 0
-723 -651 -630 0
-724 -649 -631 0
-725 -650 -632 0
-726 -651 -633 0
-727 -649 -634 0
-728 -650 -635 0
-729 -651 -636 0
-730 -649 -637 0
-731 -650 -638 0
-732 -651 -639 0
-733 -649 -640 0
-734 -650 -641 0
-735 -651 -642 0
-736 -649 -643 0
-737 -650 -644 0
-738 -651 -645 0
-739 -649 -646 0
-740 -650 -647 0
-741 -651 -648 0
-742 -649 0
-743 -650 0
-744 -651 0
-745 -652 -649 0
-746 -653 -650 0
-747 -654 -651 0
-748 -655 -649 0
-749 -656 -650 0
-750 -657 -651 0
-751 -658 -649 0
-752 -659 -650 0
-753 -660 -651 0
-754 -661 -649 0
-755 -662 -650 0
-756 -663 -651 0
-757 -664 -649 0
-758 -665 -650 0
-759 -666 -651 0
-760 -667 -649 0
-761 -668 -650 0
-762 -669 -651 0
-763 -670 -649 0
-764 -671 -650 0
-765 -672 -651 0
-766 -673 -649 0
-767 -674 -650 0
-768 -675 -651 0
-769 -676 -649 0
-770 -677 -650 0
-771 -678 -651 0
-772 -679 -649 0
-773 -680 -650 0
-774 -681 -651 0
-775 -682 -649 0
-776 -683 -650 0
-777 -684 -651 0
-778 -685 -649 0
-779 -686 -650 0
-780 -687 -651 0
-781 -688 -649 0
-782 -689 -650 0
-783 -690 -651 0
-784 -691 -649 0
-785 -692 -650 0
-786 -693 -651 0
-787 -694 -649 0
-788 -695 -650 0
-789 -696 -651 0
-790 -697 -649 0
-791 -698 -650 0
-792 -699 -651 0
-793 -700 -649 0
-794 -701 -650 0
-795 -702 -651 0
-796 -703 -649 0
-797 -704 -650 0
-798 -705 -651 0
-799 -706 -649 0
-800 -707 -650 0
-801 -708 -651 0
-802 -709 -649 0
-803 -710 -650 0
-804 -711 -651 0
-805 -712 -649 0
-806 -713 -650 0
-807 -714 -651 0
-808 -715 -649 0
-809 -716 -650 0
-810 -717 -651 0
-811 -718 -649 0
-812 -719 -650 0
-813 -720 -651 0
-814 -721 -649 0
-815 -722 -650 0
-816 -723 -651 0
-817 -724 -649 0
-818 -725 -650 0
-819 -726 -651 0
-820 -727 -649 0
-821 -728 -650 0
-822 -729 -651 0
-823 -730 -649 0
-824 -731 -650 0
-825 -732 -651 0
-826 -733 -649 0
-827 -734 -650 0
-828 -735 -651 0
-829 -736 -649 0
-830 -737 -650 0
-831 -738 -651 0
-832 -739 -649 0
-833 -740 -650 0
-834 -741 -651 0
-835 -742 -649 0
-836 -743 -650 0
-837 -744 -651 0
-838 -745 -649 0
-839 -746 -650 0
-840 -747 -651 0
-841 -748 -649 0
-842 -749 -650 0
-843 -750 -651 0
-844 -751 -649 0
-845 -752 -650 0
-846 -753 -651 0
-847 -754 -649 0
-848 -755 -650 0
-849 -756 -651 0
-850 -757 -649 0
-851 -758 -650 0
-852 -759 -651 0
-853 -760 -649 0
-854 -761 -650 0
-855 -762 -651 0
-856 -763 -649 0
-857 -764 -650 0
-858 -765 -651 0
-859 -766 -649 0
-860 -767 -650 0
-861 -768 -651 0
-862 -769 -649 0
-863 -770 -650 0
-864 -771 -651 0
-865 -772 -649 0
-866 -773 -650 0
-867 -774 -651 0
-868 -775 -649 0
-869 -776 -650 0
-870 -777 -651 0
-871 -778 -649 0
-872 -779 -650 0
-873 -780 -651 0
-874 -781 -649 0
-875 -782 -650 0
-876 -783 -651 0
-877 -784 -649 0
-878 -785 -650 0
-879 -786 -651 0
-880 -787 -649 0
-881 -788 -650 0
-882 -789 -651 0
-883 -790 -649 0
-884 -791 -650 0
-885 -792 -651 0
-886 -793 -649 0
-887 -794 -650 0
-888 -795 -651 0
-889 -796 -649 0
-890 -797 -650 0
-891 -798 -651 0
-892 -799 -649 0
-893 -800 -650 0
-894 -801 -651 0
-895 -802 -649 0
-896 -803 -650 0
-897 -804 -651 0
-898 -805 -649 0
-899 -806 -650 0
-900 -807 -651 0
-901 -808 -649 0
-902 -809 -650 0
-903 -810 -651 0
-904 -811 -649 0
-905 -812 -650 0
-906 -813 -651 0
-907 -814 -649 0
-908 -815 -650 0
-909 -816 -651 0
-910 -817 -649 0
-911 -818 -650 0
-912 -819 -651 0
-913 -820 -649 0
-914 -821 -650 0
-915 -822 -651 0
-916 -823 -649 0
-917 -824 -650 0
-918 -825 -651 0
-919 -826 -649 0
-920 -827 -650 0
-921 -828 -651 0
-922 -829 -649 0
-923 -830 -650 0
-924 -831 -651 0
-925 -832 -649 0
-926 -833 -650 0
-927 -834 -651 0
-928 -835 -649 0
-929 -836 -650 0
-930 -837 -651 0
-931 -838 -649 0
-932 -839 -650 0
-933 -840 -651 0
-934 -841 -649 0
-935 -842 -650 0
-936 -843 -651 0
-937 -844 -649 0
-938 -845 -650 0
-939 -846 -651 0
-940 -847 -649 0
-941 -848 -650 0
-942 -849 -651 0
-943 -850 -649 0
-944 -851 -650 0
-945 -852 -651 0
-946 -853 -649 0
-947 -854 -650 0
-948 -855 -651 0
-949 -856 -649 0
-950 -857 -650 0
-951 -858 -651 0
-952 -859 -649 0
-953 -860 -650 0
-954 -861 -651 0
-955 -862 -649 0
-956 -863 -650 0
-957 -864 -651 0
-958 -865 -649 0
-959 -866 -650 0
-960 -867 -651 0
-961 -868 -649 0
-962 -869 -650 0
-963 -870 -651 0
-964 -871 -649 0
-965 -872 -650 0
-966 -873 -651 0
-967 -874 -649 0
-968 -875 -650 0
-969 -876 -651 0
-970 -877 -649 0
-971 -878 -650 0
-972 -879 -651 0
-973 -880 -649 0
-974 -881 -650 0
-975 -882 -651 0
-976 -883 -649 0
-977 -884 -650 0
-978 -885 -651 0
-979 -886 -649 0
-980 -887 -650 0
-981 -888 -651 0
-982 -889 -649 0
-983 -890 -650 0
-984 -891 -651 0
-985 -892 -649 0
-986 -893 -650 0
-987 -894 -651 0
-988 -895 -649 0
-989 -896 -650 0
-990 -897 -651 0
-991 -898 -649 0
-992 -899 -650 0
-993 -900 -651 0
-994 -901 -649 0
-995 -902 -650 0
-996 -903 -651 0
-997 -904 -649 0
-998 -905 -650 0
-999 -906 -651 0
-1000 -907 -649 0
-1001 -908 -650 0
-1002 -909 -651 0
-1003 -910 -649 0
-1004 -911 -650 0
-1005 -912 -651 0
-1006 -913 -649 0
-1007 -914 -650 0
-1008 -915 -651 0
-1009 -916 -649 0
-1010 -917 -650 0
-1011 -918 -651 0
-1012 -919 -649 0
-1013 -920 -650 0
-1014 -921 -651 0
-1015 -922 -649 0
-1016 -923 -650 0
-1017 -924 -651 0
-1018 -925 -649 0
-1019 -926 -650 0
-1020 -927 -651 0
-1021 -928 -649 0
-1022 -929 -650 0
-1023 -930 -651 0
-1024 -931 -649 0
-1025 -932 -650 0
-1026 -933 -651 0
-1027 -934 -649 0
-1028 -935 -650 0
-1029 -936 -651 0
-670 -97 -1 0
-671 -98 -2 0
-672 -99 -3 0
-670 -100 -4 0
-671 -101 -5 0
-672 -102 -6 0
-670 -103 -7 0
-671 -104 -8 0
-672 -105 -9 0
-670 -106 -10 0
-671 -107 -11 0
-672 -108 -12 0
-670 -109 -13 0
-671 -110 -14 0
-672 -111 -15 0
-670 -112 -16 0
-671 -113 -17 0
-672 -114 -18 0
-670 -115 -19 0
-671 -116 -20 0
-672 -117 -21 0
-670 -118 -22 0
-671 -119 -23 0
-672 -120 -24 0
-670 -121 -25 0
-671 -122 -26 0
-672 -123 -27 0
-670 -124 -28 0
-671 -125 -29 0
-672 -126 -30 0
-670 -127 -31 0
-671 -128 -32 0
-672 -129 -33 0
-670 -130 -34 0
-671 -131 -35 0
-672 -132 -36 0
-670 -133 -37 0
-671 -134 -38 0
-672 -135 -39 0
-670 -136 -40 0
-671 -137 -41 0
-672 -138 -42 0
-670 -139 -43 0
-671 -140 -44 0
-672 -141 -45 0
-670 -142 -46 0
-671 -143 -47 0
-672 -144 -48 0
-670 -145 -49 0
-671 -146 -50 0
-672 -147 -51 0
-670 -148 -52 0
-671 -149 -53 0
-672 -150 -54 0
-670 -151 -55 0
-671 -152 -56 0
-672 -153 -57 0
-670 -154 -58 0
-671 -155 -59 0
-672 -156 -60 0
-670 -157 -61 0
-671 -158 -62 0
-672 -159 -63 0
-670 -160 -64 0
-671 -161 -65 0
-672 -162 -66 0
-670 -163 -67 0
-671 -164 -68 0
-672 -165 -69 0
-670 -166 -70 0
-671 -167 -71 0
-672 -168 -72 0
-670 -169 -73 0
-671 -170 -74 0
-672 -171 -75 0
-670 -172 -76 0
-671 -173 -77 0
-672 -174 -78 0
-670 -175 -79 0
-671 -176 -80 0
-672 -177 -81 0
-670 -178 -82 0
-671 -179 -83 0
-672 -180 -84 0
-670 -181 -85 0
-671 -182 -86 0
-672 -183 -87 0
-670 -184 -88 0
-671 -185 -89 0
-672 -186 -90 0
-670 -187 -91 0
-671 -188 -92 0
-672 -189 -93 0
-670 -190 -94 0
-671 -191 -95 0
-672 -192 -96 0
-670 -193 -97 0
-671 -194 -98 0
-672 -195 -99 0
-670 -196 -100 0
-671 -197 -101 0
-672 -198 -102 0
-670 -199 -103 0
-671 -200 -104 0
-672 -201 -105 0
-670 -202 -106 0
-671 -203 -107 0
-672 -204 -108 0
-670 -205 -109 0
-671 -206 -110 0
-672 -207 -111 0
-670 -208 -112 0
-671 -209 -113 0
-672 -210 -114 0
-670 -211 -115 0
-671 -212 -116 0
-672 -213 -117 0
-670 -214 -118 0
-671 -215 -119 0
-672 -216 -120 0
-670 -217 -121 0
-671 -218 -122 0
-672 -219 -123 0
-670 -220 -124 0
-671 -221 -125 0
-672 -222 -126 0
-670 -223 -127 0
-671 -224 -128 0
-672 -225 -129 0
-670 -226 -130 0
-671 -227 -131 0
-672 -228 -132 0
-670 -229 -133 0
-671 -230 -134 0
-672 -231 -135 0
-670 -232 -136 0
-671 -233 -137 0
-672 -234 -138 0
-670 -235 -139 0
-671 -236 -140 0
-672 -237 -141 0
-670 -238 -142 0
-671 -239 -143 0
-672 -240 -144 0
-670 -241 -145 0
-671 -242 -146 0
-672 -243 -147 0
-670 -244 -148 0
-671 -245 -149 0
-672 -246 -150 0
-670 -247 -151 0
-671 -248 -152 0
-672 -249 -153 0
-670 -250 -154 0
-671 -251 -155 0
-672 -252 -156 0
-670 -253 -157 0
-671 -254 -158 0
-672 -255 -159 0
-670 -256 -160 0
-671 -257 -161 0
-672 -258 -162 0
-670 -259 -163 0
-671 -260 -164 0
-672 -261 -165 0
-670 -262 -166 0
-671 -263 -167 0
-672 -264 -168 0
-670 -265 -169 0
-671 -266 -170 0
-672 -267 -171 0
-670 -268 -172 0
-671 -269 -173 0
-672 -270 -174 0
-670 -271 -175 0
-671 -272 -176 0
-672 -273 -177 0
-670 -274 -178 0
-671 -275 -179 0
-672 -276 -180 0
-670 -277 -181 0
-671 -278 -182 0
-672 -279 -183 0
-670 -280 -184 0
-671 -281 -185 0
-672 -282 -186 0
-670 -283 -187 0
-671 -284 -188 0
-672 -285 -189 0
-670 -286 -190 0
-671 -287 -191 0
-672 -288 -192 0
-670 -289 -193 0
-671 -290 -194 0
-672 -291 -195 0
-670 -292 -196 0
-671 -293 -197 0
-672 -294 -198 0
-670 -295 -199 0
-671 -296 -200 0
-672 -297 -201 0
-670 -298 -202 0
-671 -299 -203 0
-672 -300 -204 0
-670 -301 -205 0
-671 -302 -206 0
-672 -303 -207 0
-670 -304 -208 0
-671 -305 -209 0
-672 -306 -210 0
-670 -307 -211 0
-671 -308 -212 0
-672 -309 -213 0
-670 -310 -214 0
-671 -311 -215 0
-672 -312 -216 0
-670 -313 -217 0
-671 -314 -218 0
-672 -315 -219 0
-670 -316 -220 0
-671 -317 -221 0
-672 -318 -222 0
-670 -319 -223 0
-671 -320 -224 0
-672 -321 -225 0
-670 -322 -226 0
-671 -323 -227 0
-672 -324 -228 0
-670 -325 -229 0
-671 -326 -230 0
-672 -327 -231 0
-670 -328 -232 0
-671 -329 -233 0
-672 -330 -234 0
-670 -331 -235 0
-671 -332 -236 0
-672 -333 -237 0
-670 -334 -238 0
-671 -335 -239 0
-672 -336 -240 0
-670 -337 -241 0
-671 -338 -242 0
-672 -339 -243 0
-670 -340 -244 0
-671 -341 -245 0
-672 -342 -246 0
-670 -343 -247 0
-671 -344 -248 0
-672 -345 -249 0
-670 -346 -250 0
-671 -347 -251 0
-672 -348 -252 0
-670 -349 -253 0
-671 -350 -254 0
-672 -351 -255 0
-670 -352 -256 0
-671 -353 -257 0
-672 -354 -258 0
-670 -355 -259 0
-671 -356 -260 0
-672 -357 -261 0
-670 -358 -262 0
-671 -359 -263 0
-672 -360 -264 0
-670 -361 -265 0
-671 -362 -266 0
-672 -363 -267 0
-670 -364 -268 0
-671 -365 -269 0
-672 -366 -270 0
-670 -367 -271 0
-671 -368 -272 0
-672 -369 -273 0
-670 -370 -274 0
-671 -371 -275 0
-672 -372 -276 0
-670 -373 -277 0
-671 -374 -278 0
-672 -375 -279 0
-670 -376 -280 0
-671 -377 -281 0
-672 -378 -282 0
-670 -379 -283 0
-671 -380 -284 0
-672 -381 -285 0
-670 -382 -286 0
-671 -383 -287 0
-672 -384 -288 0
-670 -385 -289 0
-671 -386 -290 0
-672 -387 -291 0
-670 -388 -292 0
-671 -389 -293 0
-672 -390 -294 0
-670 -391 -295 0
-671 -392 -296 0
-672 -393 -297 0
-670 -394 -298 0
-671 -395 -299 0
-672 -396 -300 0
-670 -397 -301 0
-671 -398 -302 0
-672 -399 -303 0
-670 -400 -304 0
-671 -401 -305 0
-672 -402 -306 0
-670 -403 -307 0
-671 -404 -308 0
-672 -405 -309 0
-670 -406 -310 0
-671 -407 -311 0
-672 -408 -312 0
-670 -409 -313 0
-671 -410 -314 0
-672 -411 -315 0
-670 -412 -316 0
-671 -413 -317 0
-672 -414 -318 0
-670 -415 -319 0
-671 -416 -320 0
-672 -417 -321 0
-670 -418 -322 0
-671 -419 -323 0
-672 -420 -324 0
-670 -421 -325 0
-671 -422 -326 0
-672 -423 -327 0
-670 -424 -328 0
-671 -425 -329 0
-672 -426 -330 0
-670 -427 -331 0
-671 -428 -332 0
-672 -429 -333 0
-670 -430 -334 0
-671 -431 -335 0
-672 -432 -336 0
-670 -433 -337 0
-671 -434 -338 0
-672 -435 -339 0
-670 -436 -340 0
-671 -437 -341 0
-672 -438 -342 0
-670 -439 -343 0
-671 -440 -344 0
-672 -441 -345 0
-670 -442 -346 0
-671 -443 -347 0
-672 -444 -348 0
-670 -445 -349 0
-671 -446 -350 0
-672 -447 -351 0
-670 -448 -352 0
-671 -449 -353 0
-672 -450 -354 0
-670 -451 -355 0
-671 -452 -356 0
-672 -453 -357 0
-670 -454 -358 0
-671 -455 -359 0
-672 -456 -360 0
-670 -457 -361 0
-671 -458 -362 0
-672 -459 -363 0
-670 -460 -364 0
-671 -461 -365 0
-672 -462 -366 0
-670 -463 -367 0
-671 -464 -368 0
-672 -465 -369 0
-670 -466 -370 0
-671 -467 -371 0
-672 -468 -372 0
-670 -469 -373 0
-671 -470 -374 0
-672 -471 -375 0
-670 -472 -376 0
-671 -473 -377 0
-672 -474 -378 0
-670 -475 -379 0
-671 -476 -380 0
-672 -477 -381 0
-670 -478 -382 0
-671 -479 -383 0
-672 -480 -384 0
-670 -481 -385 0
-671 -482 -386 0
-672 -483 -387 0
-670 -484 -388 0
-671 -485 -389 0
-672 -486 -390 0
-670 -487 -391 0
-671 -488 -392 0
-672 -489 -393 0
-670 -490 -394 0
-671 -491 -395 0
-672 -492 -396 0
-670 -493 -397 0
-671 -494 -398 0
-672 -495 -399 0
-670 -496 -400 0
-671 -497 -401 0
-672 -498 -402 0
-670 -499 -403 0
-671 -500 -404 0
-672 -501 -405 0
-670 -502 -406 0
-671 -503 -407 0
-672 -504 -408 0
-670 -505 -409 0
-671 -506 -410 0
-672 -507 -411 0
-670 -508 -412 0
-671 -509 -413 0
-672 -510 -414 0
-670 -511 -415 0
-671 -512 -416 0
-672 -513 -417 0
-670 -514 -418 0
-671 -515 -419 0
-672 -516 -420 0
-670 -517 -421 0
-671 -518 -422 0
-672 -519 -423 0
-670 -520 -424 0
-671 -521 -425 0
-672 -522 -426 0
-670 -523 -427 0
-671 -524 -428 0
-672 -525 -429 0
-670 -526 -430 0
-671 -527 -431 0
-672 -528 -432 0
-670 -529 -433 0
-671 -530 -434 0
-672 -531 -435 0
-670 -532 -436 0
-671 -533 -437 0
-672 -534 -438 0
-670 -535 -439 0
-671 -536 -440 0
-672 -537 -441 0
-670 -538 -442 0
-671 -539 -443 0
-672 -540 -444 0
-670 -541 -445 0
-671 -542 -446 0
-672 -543 -447 0
-670 -544 -448 0
-671 -545 -449 0
-672 -546 -450 0
-670 -547 -451 0
-671 -548 -452 0
-672 -549 -453 0
-670 -550 -454 0
-671 -551 -455 0
-672 -552 -456 0
-670 -553 -457 0
-671 -554 -458 0
-672 -555 -459 0
-670 -556 -460 0
-671 -557 -461 0
-672 -558 -462 0
-670 -559 -463 0
-671 -560 -464 0
-672 -561 -465 0
-670 -562 -466 0
-671 -563 -467 0
-672 -564 -468 0
-670 -565 -469 0
-671 -566 -470 0
-672 -567 -471 0
-670 -568 -472 0
-671 -569 -473 0
-672 -570 -474 0
-670 -571 -475 0
-671 -572 -476 0
-672 -573 -477 0
-670 -574 -478 0
-671 -575 -479 0
-672 -576 -480 0
-670 -577 -481 0
-671 -578 -482 0
-672 -579 -483 0
-670 -580 -484 0
-671 -581 -485 0
-672 -582 -486 0
-670 -583 -487 0
-671 -584 -488 0
-672 -585 -489 0
-670 -586 -490 0
-671 -587 -491 0
-672 -588 -492 0
-670 -589 -493 0
-671 -590 -494 0
-672 -591 -495 0
-670 -592 -496 0
-671 -593 -497 0
-672 -594 -498 0
-670 -595 -499 0
-671 -596 -500 0
-672 -597 -501 0
-670 -598 -502 0
-671 -599 -503 0
-672 -600 -504 0
-670 -601 -505 0
-671 -602 -506 0
-672 -603 -507 0
-670 -604 -508 0
-671 -605 -509 0
-672 -606 -510 0
-670 -607 -511 0
-671 -608 -512 0
-672 -609 -513 0
-670 -610 -514 0
-671 -611 -515 0
-672 -612 -516 0
-670 -613 -517 0
-671 -614 -518 0
-672 -615 -519 0
-670 -616 -520 0
-671 -617 -521 0
-672 -618 -522 0
-670 -619 -523 0
-671 -620 -524 0
-672 -621 -525 0
-670 -622 -526 0
-671 -623 -527 0
-672 -624 -528 0
-670 -625 -529 0
-671 -626 -530 0
-672 -627 -531 0
-670 -628 -532 0
-671 -629 -533 0
-672 -630 -534 0
-670 -631 -535 0
-671 -632 -536 0
-672 -633 -537 0
-670 -634 -538 0
-671 -635 -539 0
-672 -636 -540 0
-670 -637 -541 0
-671 -638 -542 0
-672 -639 -543 0
-670 -640 -544 0
-671 -641 -545 0
-672 -642 -546 0
-670 -643 -547 0
-671 -644 -548 0
-672 -645 -549 0
-670 -646 -550 0
-671 -647 -551 0
-672 -648 -552 0
-670 -649 -553 0
-671 -650 -554 0
-672 -651 -555 0
-670 -652 -556 0
-671 -653 -557 0
-672 -654 -558 0
-670 -655 -559 0
-671 -656 -560 0
-672 -657 -561 0
-670 -658 -562 0
-671 -659 -563 0
-672 -660 -564 0
-670 -661 -565 0
-671 -662 -566 0
-672 -663 -567 0
-670 -664 -568 0
-671 -665 -569 0
-672 -666 -570 0
-670 -667 -571 0
-671 -668 -572 0
-672 -669 -573 0
-670 -574 0
-671 -575 0
-672 -576 0
-673 -670 -577 0
-674 -671 -578 0
-675 -672 -579 0
-676 -670 -580 0
-677 -671 -581 0
-678 -672 -582 0
-679 -670 -583 0
-680 -671 -584 0
-681 -672 -585 0
-682 -670 -586 0
-683 -671 -587 0
-684 -672 -588 0
-685 -670 -589 0
-686 -671 -590 0
-687 -672 -591 0
-688 -670 -592 0
-689 -671 -593 0
-690 -672 -594 0
-691 -670 -595 0
-692 -671 -596 0
-693 -672 -597 0
-694 -670 -598 0
-695 -671 -599 0
-696 -672 -600 0
-697 -670 -601 0
-698 -671 -602 0
-699 -672 -603 0
-700 -670 -604 0
-701 -671 -605 0
-702 -672 -606 0
-703 -670 -607 0
-704 -671 -608 0
-705 -672 -609 0
-706 -670 -610 0
-707 -671 -611 0
-708 -672 -612 0
-709 -670 -613 0
-710 -671 -614 0
-711 -672 -615 0
-712 -670 -616 0
-713 -671 -617 0
-714 -672 -618 0
-715 -670 -619 0
-716 -671 -620 0
-717 -672 -621 0
-718 -670 -622 0
-719 -671 -623 0
-720 -672 -624 0
-721 -670 -625 0
-722 -671 -626 0
-723 -672 -627 0
-724 -670 -628 0
-725 -671 -629 0
-726 -672 -630 0
-727 -670 -631 0
-728 -671 -632 0
-729 -672 -633 0
-730 -670 -634 0
-731 -671 -635 0
-732 -672 -636 0
-733 -670 -637 0
-734 -671 -638 0
-735 -672 -639 0
-736 -670 -640 0
-737 -671 -641 0
-738 -672 -642 0
-739 -670 -643 0
-740 -671 -644 0
-741 -672 -645 0
-742 -670 -646 0
-743 -671 -647 0
-744 -672 -648 0
-745 -670 -649 0
-746 -671 -650 0
-747 -672 -651 0
-748 -670 -652 0
-749 -671 -653 0
-750 -672 -654 0
-751 -670 -655 0
-752 -671 -656 0
-753 -672 -657 0
-754 -670 -658 0
-755 -671 -659 0
-756 -672 -660 0
-757 -670 -661 0
-758 -671 -662 0
-759 -672 -663 0
-760 -670 -664 0
-761 -671 -665 0
-762 -672 -666 0
-763 -670 -667 0
-764 -671 -668 0
-765 -672 -669 0
-766 -670 0
-767 -671 0
-768 -672 0
-769 -673 -670 0
-770 -674 -671 0
-771 -675 -672 0
-772 -676 -670 0
-773 -677 -671 0
-774 -678 -672 0
-775 -679 -670 0
-776 -680 -671 0
-777 -681 -672 0
-778 -682 -670 0
-779 -683 -671 0
-780 -684 -672 0
-781 -685 -670 0
-782 -686 -671 0
-783 -687 -672 0
-784 -688 -670 0
-785 -689 -671 0
-786 -690 -672 0
-787 -691 -670 0
-788 -692 -671 0
-789 -693 -672 0
-790 -694 -670 0
-791 -695 -671 0
-792 -696 -672 0
-793 -697 -670 0
-794 -698 -671 0
-795 -699 -672 0
-796 -700 -670 0
-797 -701 -671 0
-798 -702 -672 0
-799 -703 -670 0
-800 -704 -671 0
-801 -705 -672 0
-802 -706 -670 0
-803 -707 -671 0
-804 -708 -672 0
-805 -709 -670 0
-806 -710 -671 0
-807 -711 -672 0
-808 -712 -670 0
-809 -713 -671 0
-810 -714 -672 0
-811 -715 -670 0
-812 -716 -671 0
-813 -717 -672 0
-814 -718 -670 0
-815 -719 -671 0
-816 -720 -672 0
-817 -721 -670 0
-818 -722 -671 0
-819 -723 -672 0
-820 -724 -670 0
-821 -725 -671 0
-822 -726 -672 0
-823 -727 -670 0
-824 -728 -671 0
-825 -729 -672 0
-826 -730 -670 0
-827 -731 -671 0
-828 -732 -672 0
-829 -733 -670 0
-830 -734 -671 0
-831 -735 -672 0
-832 -736 -670 0
-833 -737 -671 0
-834 -738 -672 0
-835 -739 -670 0
-836 -740 -671 0
-837 -741 -672 0
-838 -742 -670 0
-839 -743 -671 0
-840 -744 -672 0
-841 -745 -670 0
-842 -746 -671 0
-843 -747 -672 0
-844 -748 -670 0
-845 -749 -671 0
-846 -750 -672 0
-847 -751 -670 0
-848 -752 -671 0
-849 -753 -672 0
-850 -754 -670 0
-851 -755 -671 0
-852 -756 -672 0
-853 -757 -670 0
-854 -758 -671 0
-855 -759 -672 0
-856 -760 -670 0
-857 -761 -671 0
-858 -762 -672 0
-859 -763 -670 0
-860 -764 -671 0
-861 -765 -672 0
-862 -766 -670 0
-863 -767 -671 0
-864 -768 -672 0
-865 -769 -670 0
-866 -770 -671 0
-867 -771 -672 0
-868 -772 -670 0
-869 -773 -671 0
-870 -774 -672 0
-871 -775 -670 0
-872 -776 -671 0
-873 -777 -672 0
-874 -778 -670 0
-875 -779 -671 0
-876 -780 -672 0
-877 -781 -670 0
-878 -782 -671 0
-879 -783 -672 0
-880 -784 -670 0
-881 -785 -671 0
-882 -786 -672 0
-883 -787 -670 0
-884 -788 -671 0
-885 -789 -672 0
-886 -790 -670 0
-887 -791 -671 0
-888 -792 -672 0
-889 -793 -670 0
-890 -794 -671 0
-891 -795 -672 0
-892 -796 -670 0
-893 -797 -671 0
-894 -798 -672 0
-895 -799 -670 0
-896 -800 -671 0
-897 -801 -672 0
-898 -802 -670 0
-899 -803 -671 0
-900 -804 -672 0
-901 -805 -670 0
-902 -806 -671 0
-903 -807 -672 0
-904 -808 -670 0
-905 -809 -671 0
-906 -810 -672 0
-907 -811 -670 0
-908 -812 -671 0
-909 -813 -672 0
-910 -814 -670 0
-911 -815 -671 0
-912 -816 -672 0
-913 -817 -670 0
-914 -818 -671 0
-915 -819 -672 0
-916 -820 -670 0
-917 -821 -671 0
-918 -822 -672 0
-919 -823 -670 0
-920 -824 -671 0
-921 -825 -672 0
-922 -826 -670 0
-923 -827 -671 0
-924 -828 -672 0
-925 -829 -670 0
-926 -830 -671 0
-927 -831 -672 0
-928 -832 -670 0
-929 -833 -671 0
-930 -834 -672 0
-931 -835 -670 0
-932 -836 -671 0
-933 -837 -672 0
-934 -838 -670 0
-935 -839 -671 0
-936 -840 -672 0
-937 -841 -670 0
-938 -842 -671 0
-939 -843 -672 0
-940 -844 -670 0
-941 -845 -671 0
-942 -846 -672 0
-943 -847 -670 0
-944 -848 -671 0
-945 -849 -672 0
-946 -850 -670 0
-947 -851 -671 0
-948 -852 -672 0
-949 -853 -670 0
-950 -854 -671 0
-951 -855 -672 0
-952 -856 -670 0
-953 -857 -671 0
-954 -858 -672 0
-955 -859 -670 0
-956 -860 -671 0
-957 -861 -672 0
-958 -862 -670 0
-959 -863 -671 0
-960 -864 -672 0
-961 -865 -670 0
-962 -866 -671 0
-963 -867 -672 0
-964 -868 -670 0
-965 -869 -671 0
-966 -870 -672 0
-967 -871 -670 0
-968 -872 -671 0
-969 -873 -672 0
-970 -874 -670 0
-971 -875 -671 0
-972 -876 -672 0
-973 -877 -670 0
-974 -878 -671 0
-975 -879 -672 0
-976 -880 -670 0
-977 -881 -671 0
-978 -882 -672 0
-979 -883 -670 0
-980 -884 -671 0
-981 -885 -672 0
-982 -886 -670 0
-983 -887 -671 0
-984 -888 -672 0
-985 -889 -670 0
-986 -890 -671 0
-987 -891 -672 0
-988 -892 -670 0
-989 -893 -671 0
-990 -894 -672 0
-991 -895 -670 0
-992 -896 -671 0
-993 -897 -672 0
-994 -898 -670 0
-995 -899 -671 0
-996 -900 -672 0
-997 -901 -670 0
-998 -902 -671 0
-999 -903 -672 0
-1000 -904 -670 0
-1001 -905 -671 0
-1002 -906 -672 0
-1003 -907 -670 0
-1004 -908 -671 0
-1005 -909 -672 0
-1006 -910 -670 0
-1007 -911 -671 0
-1008 -912 -672 0
-1009 -913 -670 0
-1010 -914 -671 0
-1011 -915 -672 0
-1012 -916 -670 0
-1013 -917 -671 0
-1014 -918 -672 0
-1015 -919 -670 0
-1016 -920 -671 0
-1017 -921 -672 0
-1018 -922 -670 0
-1019 -923 -671 0
-1020 -924 -672 0
-1021 -925 -670 0
-1022 -926 -671 0
-1023 -927 -672 0
-1024 -928 -670 0
-1025 -929 -671 0
-1026 -930 -672 0
-1027 -931 -670 0
-1028 -932 -671 0
-1029 -933 -672 0
-691 -100 -1 0
-692 -101 -2 0
-693 -102 -3 0
-691 -103 -4 0
-692 -104 -5 0
-693 -105 -6 0
-691 -106 -7 0
-692 -107 -8 0
-693 -108 -9 0
-691 -109 -10 0
-692 -110 -11 0
-693 -111 -12 0
-691 -112 -13 0
-692 -113 -14 0
-693 -114 -15 0
-691 -115 -16 0
-692 -116 -17 0
-693 -117 -18 0
-691 -118 -19 0
-692 -119 -20 0
-693 -120 -21 0
-691 -121 -22 0
-692 -122 -23 0
-693 -123 -24 0
-691 -124 -25 0
-692 -125 -26 0
-693 -126 -27 0
-691 -127 -28 0
-692 -128 -29 0
-693 -129 -30 0
-691 -130 -31 0
-692 -131 -32 0
-693 -132 -33 0
-691 -133 -34 0
-692 -134 -35 0
-693 -135 -36 0
-691 -136 -37 0
-692 -137 -38 0
-693 -138 -39 0
-691 -139 -40 0
-692 -140 -41 0
-693 -141 -42 0
-691 -142 -43 0
-692 -143 -44 0
-693 -144 -45 0
-691 -145 -46 0
-692 -146 -47 0
-693 -147 -48 0
-691 -148 -49 0
-692 -149 -50 0
-693 -150 -51 0
-691 -151 -52 0
-692 -152 -53 0
-693 -153 -54 0
-691 -154 -55 0
-692 -155 -56 0
-693 -156 -57 0
-691 -157 -58 0
-692 -158 -59 0
-693 -159 -60 0
-691 -160 -61 0
-692 -161 -62 0
-693 -162 -63 0
-691 -163 -64 0
-692 -164 -65 0
-693 -165 -66 0
-691 -166 -67 0
-692 -167 -68 0
-693 -168 -69 0
-691 -169 -70 0
-692 -170 -71 0
-693 -171 -72 0
-691 -172 -73 0
-692 -173 -74 0
-693 -174 -75 0
-691 -175 -76 0
-692 -176 -77 0
-693 -177 -78 0
-691 -178 -79 0
-692 -179 -80 0
-693 -180 -81 0
-691 -181 -82 0
-692 -182 -83 0
-693 -183 -84 0
-691 -184 -85 0
-692 -185 -86 0
-693 -186 -87 0
-691 -187 -88 0
-692 -188 -89 0
-693 -189 -90 0
-691 -190 -91 0
-692 -191 -92 0
-693 -192 -93 0
-691 -193 -94 0
-692 -194 -95 0
-693 -195 -96 0
-691 -196 -97 0
-692 -197 -98 0
-693 -198 -99 0
-691 -199 -100 0
-692 -200 -101 0
-693 -201 -102 0
-691 -202 -103 0
-692 -203 -104 0
-693 -204 -105 0
-691 -205 -106 0
-692 -206 -107 0
-693 -207 -108 0
-691 -208 -109 0
-692 -209 -110 0
-693 -210 -111 0
-691 -211 -112 0
-692 -212 -113 0
-693 -213 -114 0
-691 -214 -115 0
-692 -215 -116 0
-693 -216 -117 0
-691 -217 -118 0
-692 -218 -119 0
-693 -219 -120 0
-691 -220 -121 0
-692 -221 -122 0
-693 -222 -123 0
-691 -223 -124 0
-692 -224 -125 0
-693 -225 -126 0
-691 -226 -127 0
-692 -227 -128 0
-693 -228 -129 0
-691 -229 -130 0
-692 -230 -131 0
-693 -231 -132 0
-691 -232 -133 0
-692 -233 -134 0
-693 -234 -135 0
-691 -235 -136 0
-692 -236 -137 0
-693 -237 -138 0
-691 -238 -139 0
-692 -239 -140 0
-693 -240 -141 0
-691 -241 -142 0
-692 -242 -143 0
-693 -243 -144 0
-691 -244 -145 0
-692 -245 -146 0
-693 -246 -147 0
-691 -247 -148 0
-692 -248 -149 0
-693 -249 -150 0
-691 -250 -151 0
-692 -251 -152 0
-693 -252 -153 0
-691 -253 -154 0
-692 -254 -155 0
-693 -255 -156 0
-691 -256 -157 0
-692 -257 -158 0
-693 -258 -159 0
-691 -259 -160 0
-692 -260 -161 0
-693 -261 -162 0
-691 -262 -163 0
-692 -263 -164 0
-693 -264 -165 0
-691 -265 -166 0
-692 -266 -167 0
-693 -267 -168 0
-691 -268 -169 0
-692 -269 -170 0
-693 -270 -171 0
-691 -271 -172 0
-692 -272 -173 0
-693 -273 -174 0
-691 -274 -175 0
-692 -275 -176 0
-693 -276 -177 0
-691 -277 -178 0
-692 -278 -179 0
-693 -279 -180 0
-691 -280 -181 0
-692 -281 -182 0
-693 -282 -183 0
-691 -283 -184 0
-692 -284 -185 0
-693 -285 -186 0
-691 -286 -187 0
-692 -287 -188 0
-693 -288 -189 0
-691 -289 -190 0
-692 -290 -191 0
-693 -291 -192 0
-691 -292 -193 0
-692 -293 -194 0
-693 -294 -195 0
-691 -295 -196 0
-692 -296 -197 0
-693 -297 -198 0
-691 -298 -199 0
-692 -299 -200 0
-693 -300 -201 0
-691 -301 -202 0
-692 -302 -203 0
-693 -303 -204 0
-691 -304 -205 0
-692 -305 -206 0
-693 -306 -207 0
-691 -307 -208 0
-692 -308 -209 0
-693 -309 -210 0
-691 -310 -211 0
-692 -311 -212 0
-693 -312 -213 0
-691 -313 -214 0
-692 -314 -215 0
-693 -315 -216 0
-691 -316 -217 0
-692 -317 -218 0
-693 -318 -219 0
-691 -319 -220 0
-692 -320 -221 0
-693 -321 -222 0
-691 -322 -223 0
-692 -323 -224 0
-693 -324 -225 0
-691 -325 -226 0
-692 -326 -227 0
-693 -327 -228 0
-691 -328 -229 0
-692 -329 -230 0
-693 -330 -231 0
-691 -331 -232 0
-692 -332 -233 0
-693 -333 -234 0
-691 -334 -235 0
-692 -335 -236 0
-693 -336 -237 0
-691 -337 -238 0
-692 -338 -239 0
-693 -339 -240 0
-691 -340 -241 0
-692 -341 -242 0
-693 -342 -243 0
-691 -343 -244 0
-692 -344 -245 0
-693 -345 -246 0
-691 -346 -247 0
-692 -347 -248 0
-693 -348 -249 0
-691 -349 -250 0
-692 -350 -251 0
-693 -351 -252 0
-691 -352 -253 0
-692 -353 -254 0
-693 -354 -255 0
-691 -355 -256 0
-692 -356 -257 0
-693 -357 -258 0
-691 -358 -259 0
-692 -359 -260 0
-693 -360 -261 0
-691 -361 -262 0
-692 -362 -263 0
-693 -363 -264 0
-691 -364 -265 0
-692 -365 -266 0
-693 -366 -267 0
-691 -367 -268 0
-692 -368 -269 0
-693 -369 -270 0
-691 -370 -271 0
-692 -371 -272 0
-693 -372 -273 0
-691 -373 -274 0
-692 -374 -275 0
-693 -375 -276 0
-691 -376 -277 0
-692 -377 -278 0
-693 -378 -279 0
-691 -379 -280 0
-692 -380 -281 0
-693 -381 -282 0
-691 -382 -283 0
-692 -383 -284 0
-693 -384 -285 0
-691 -385 -286 0
-692 -386 -287 0
-693 -387 -288 0
-691 -388 -289 0
-692 -389 -290 0
-693 -390 -291 0
-691 -391 -292 0
-692 -392 -293 0
-693 -393 -294 0
-691 -394 -295 0
-692 -395 -296 0
-693 -396 -297 0
-691 -397 -298 0
-692 -398 -299 0
-693 -399 -300 0
-691 -400 -301 0
-692 -401 -302 0
-693 -402 -303 0
-691 -403 -304 0
-692 -404 -305 0
-693 -405 -306 0
-691 -406 -307 0
-692 -407 -308 0
-693 -408 -309 0
-691 -409 -310 0
-692 -410 -311 0
-693 -411 -312 0
-691 -412 -313 0
-692 -413 -314 0
-693 -414 -315 0
-691 -415 -316 0
-692 -416 -317 0
-693 -417 -318 0
-691 -418 -319 0
-692 -419 -320 0
-693 -420 -321 0
-691 -421 -322 0
-692 -422 -323 0
-693 -423 -324 0
-691 -424 -325 0
-692 -425 -326 0
-693 -426 -327 0
-691 -427 -328 0
-692 -428 -329 0
-693 -429 -330 0
-691 -430 -331 0
-692 -431 -332 0
-693 -432 -333 0
-691 -433 -334 0
-692 -434 -335 0
-693 -435 -336 0
-691 -436 -337 0
-692 -437 -338 0
-693 -438 -339 0
-691 -439 -340 0
-692 -440 -341 0
-693 -441 -342 0
-691 -442 -343 0
-692 -443 -344 0
-693 -444 -345 0
-691 -445 -346 0
-692 -446 -347 0
-693 -447 -348 0
-691 -448 -349 0
-692 -449 -350 0
-693 -450 -351 0
-691 -451 -352 0
-692 -452 -353 0
-693 -453 -354 0
-691 -454 -355 0
-692 -455 -356 0
-693 -456 -357 0
-691 -457 -358 0
-692 -458 -359 0
-693 -459 -360 0
-691 -460 -361 0
-692 -461 -362 0
-693 -462 -363 0
-691 -463 -364 0
-692 -464 -365 0
-693 -465 -366 0
-691 -466 -367 0
-692 -467 -368 0
-693 -468 -369 0
-691 -469 -370 0
-692 -470 -371 0
-693 -471 -372 0
-691 -472 -373 0
-692 -473 -374 0
-693 -474 -375 0
-691 -475 -376 0
-692 -476 -377 0
-693 -477 -378 0
-691 -478 -379 0
-692 -479 -380 0
-693 -480 -381 0
-691 -481 -382 0
-692 -482 -383 0
-693 -483 -384 0
-691 -484 -385 0
-692 -485 -386 0
-693 -486 -387 0
-691 -487 -388 0
-692 -488 -389 0
-693 -489 -390 0
-691 -490 -391 0
-692 -491 -392 0
-693 -492 -393 0
-691 -493 -394 0
-692 -494 -395 0
-693 -495 -396 0
-691 -496 -397 0
-692 -497 -398 0
-693 -498 -399 0
-691 -499 -400 0
-692 -500 -401 0
-693 -501 -402 0
-691 -502 -403 0
-692 -503 -404 0
-693 -504 -405 0
-691 -505 -406 0
-692 -506 -407 0
-693 -507 -408 0
-691 -508 -409 0
-692 -509 -410 0
-693 -510 -411 0
-691 -511 -412 0
-692 -512 -413 0
-693 -513 -414 0
-691 -514 -415 0
-692 -515 -416 0
-693 -516 -417 0
-691 -517 -418 0
-692 -518 -419 0
-693 -519 -420 0
-691 -520 -421 0
-692 -521 -422 0
-693 -522 -423 0
-691 -523 -424 0
-692 -524 -425 0
-693 -525 -426 0
-691 -526 -427 0
-692 -527 -428 0
-693 -528 -429 0
-691 -529 -430 0
-692 -530 -431 0
-693 -531 -432 0
-691 -532 -433 0
-692 -533 -434 0
-693 -534 -435 0
-691 -535 -436 0
-692 -536 -437 0
-693 -537 -438 0
-691 -538 -439 0
-692 -539 -440 0
-693 -540 -441 0
-691 -541 -442 0
-692 -542 -443 0
-693 -543 -444 0
-691 -544 -445 0
-692 -545 -446 0
-693 -546 -447 0
-691 -547 -448 0
-692 -548 -449 0
-693 -549 -450 0
-691 -550 -451 0
-692 -551 -452 0
-693 -552 -453 0
-691 -553 -454 0
-692 -554 -455 0
-693 -555 -456 0
-691 -556 -457 0
-692 -557 -458 0
-693 -558 -459 0
-691 -559 -460 0
-692 -560 -461 0
-693 -561 -462 0
-691 -562 -463 0
-692 -563 -464 0
-693 -564 -465 0
-691 -565 -466 0
-692 -566 -467 0
-693 -567 -468 0
-691 -568 -469 0
-692 -569 -470 0
-693 -570 -471 0
-691 -571 -472 0
-692 -572 -473 0
-693 -573 -474 0
-691 -574 -475 0
-692 -575 -476 0
-693 -576 -477 0
-691 -577 -478 0
-692 -578 -479 0
-693 -579 -480 0
-691 -580 -481 0
-692 -581 -482 0
-693 -582 -483 0
-691 -583 -484 0
-692 -584 -485 0
-693 -585 -486 0
-691 -586 -487 0
-692 -587 -488 0
-693 -588 -489 0
-691 -589 -490 0
-692 -590 -491 0
-693 -591 -492 0
-691 -592 -493 0
-692 -593 -494 0
-693 -594 -495 0
-691 -595 -496 0
-692 -596 -497 0
-693 -597 -498 0
-691 -598 -499 0
-692 -599 -500 0
-693 -600 -501 0
-691 -601 -502 0
-692 -602 -503 0
-693 -603 -504 0
-691 -604 -505 0
-692 -605 -506 0
-693 -606 -507 0
-691 -607 -508 0
-692 -608 -509 0
-693 -609 -510 0
-691 -610 -511 0
-692 -611 -512 0
-693 -612 -513 0
-691 -613 -514 0
-692 -614 -515 0
-693 -615 -516 0
-691 -616 -517 0
-692 -617 -518 0
-693 -618 -519 0
-691 -619 -520 0
-692 -620 -521 0
-693 -621 -522 0
-691 -622 -523 0
-692 -623 -524 0
-693 -624 -525 0
-691 -625 -526 0
-692 -626 -527 0
-693 -627 -528 0
-691 -628 -529 0
-692 -629 -530 0
-693 -630 -531 0
-691 -631 -532 0
-692 -632 -533 0
-693 -633 -534 0
-691 -634 -535 0
-692 -635 -536 0
-693 -636 -537 0
-691 -637 -538 0
-692 -638 -539 0
-693 -639 -540 0
-691 -640 -541 0
-692 -641 -542 0
-693 -642 -543 0
-691 -643 -544 0
-692 -644 -545 0
-693 -645 -546 0
-691 -646 -547 0
-692 -647 -548 0
-693 -648 -549 0
-691 -649 -550 0
-692 -650 -551 0
-693 -651 -552 0
-691 -652 -553 0
-692 -653 -554 0
-693 -654 -555 0
-691 -655 -556 0
-692 -656 -557 0
-693 -657 -558 0
-691 -658 -559 0
-692 -659 -560 0
-693 -660 -561 0
-691 -661 -562 0
-692 -662 -563 0
-693 -663 -564 0
-691 -664 -565 0
-692 -665 -566 0
-693 -666 -567 0
-691 -667 -568 0
-692 -668 -569 0
-693 -669 -570 0
-691 -670 -571 0
-692 -671 -572 0
-693 -672 -573 0
-691 -673 -574 0
-692 -674 -575 0
-693 -675 -576 0
-691 -676 -577 0
-692 -677 -578 0
-693 -678 -579 0
-691 -679 -580 0
-692 -680 -581 0
-693 -681 -582 0
-691 -682 -583 0
-692 -683 -584 0
-693 -684 -585 0
-691 -685 -586 0
-692 -686 -587 0
-693 -687 -588 0
-691 -688 -589 0
-692 -689 -590 0
-693 -690 -591 0
-691 -592 0
-692 -593 0
-693 -594 0
-694 -691 -595 0
-695 -692 -596 0
-696 -693 -597 0
-697 -691 -598 0
-698 -692 -599 0
-699 -693 -600 0
-700 -691 -601 0
-701 -692 -602 0
-702 -693 -603 0
-703 -691 -604 0
-704 -692 -605 0
-705 -693 -606 0
-706 -691 -607 0
-707 -692 -608 0
-708 -693 -609 0
-709 -691 -610 0
-710 -692 -611 0
-711 -693 -612 0
-712 -691 -613 0
-713 -692 -614 0
-714 -693 -615 0
-715 -691 -616 0
-716 -692 -617 0
-717 -693 -618 0
-718 -691 -619 0
-719 -692 -620 0
-720 -693 -621 0
-721 -691 -622 0
-722 -692 -623 0
-723 -693 -624 0
-724 -691 -625 0
-725 -692 -626 0
-726 -693 -627 0
-727 -691 -628 0
-728 -692 -629 0
-729 -693 -630 0
-730 -691 -631 0
-731 -692 -632 0
-732 -693 -633 0
-733 -691 -634 0
-734 -692 -635 0
-735 -693 -636 0
-736 -691 -637 0
-737 -692 -638 0
-738 -693 -639 0
-739 -691 -640 0
-740 -692 -641 0
-741 -693 -642 0
-742 -691 -643 0
-743 -692 -644 0
-744 -693 -645 0
-745 -691 -646 0
-746 -692 -647 0
-747 -693 -648 0
-748 -691 -649 0
-749 -692 -650 0
-750 -693 -651 0
-751 -691 -652 0
-752 -692 -653 0
-753 -693 -654 0
-754 -691 -655 0
-755 -692 -656 0
-756 -693 -657 0
-757 -691 -658 0
-758 -692 -659 0
-759 -693 -660 0
-760 -691 -661 0
-761 -692 -662 0
-762 -693 -663 0
-763 -691 -664 0
-764 -692 -665 0
-765 -693 -666 0
-766 -691 -667 0
-767 -692 -668 0
-768 -693 -669 0
-769 -691 -670 0
-770 -692 -671 0
-771 -693 -672 0
-772 -691 -673 0
-773 -692 -674 0
-774 -693 -675 0
-775 -691 -676 0
-776 -692 -677 0
-777 -693 -678 0
-778 -691 -679 0
-779 -692 -680 0
-780 -693 -681 0
-781 -691 -682 0
-782 -692 -683 0
-783 -693 -684 0
-784 -691 -685 0
-785 -692 -686 0
-786 -693 -687 0
-787 -691 -688 0
-788 -692 -689 0
-789 -693 -690 0
-790 -691 0
-791 -692 0
-792 -693 0
-793 -694 -691 0
-794 -695 -692 0
-795 -696 -693 0
-796 -697 -691 0
-797 -698 -692 0
-798 -699 -693 0
-799 -700 -691 0
-800 -701 -692 0
-801 -702 -693 0
-802 -703 -691 0
-803 -704 -692 0
-804 -705 -693 0
-805 -706 -691 0
-806 -707 -692 0
-807 -708 -693 0
-808 -709 -691 0
-809 -710 -692 0
-810 -711 -693 0
-811 -712 -691 0
-812 -713 -692 0
-813 -714 -693 0
-814 -715 -691 0
-815 -716 -692 0
-816 -717 -693 0
-817 -718 -691 0
-818 -719 -692 0
-819 -720 -693 0
-820 -721 -691 0
-821 -722 -692 0
-822 -723 -693 0
-823 -724 -691 0
-824 -725 -692 0
-825 -726 -693 0
-826 -727 -691 0
-827 -728 -692 0
-828 -729 -693 0
-829 -730 -691 0
-830 -731 -692 0
-831 -732 -693 0
-832 -733 -691 0
-833 -734 -692 0
-834 -735 -693 0
-835 -736 -691 0
-836 -737 -692 0
-837 -738 -693 0
-838 -739 -691 0
-839 -740 -692 0
-840 -741 -693 0
-841 -742 -691 0
-842 -743 -692 0
-843 -744 -693 0
-844 -745 -691 0
-845 -746 -692 0
-846 -747 -693 0
-847 -748 -691 0
-848 -749 -692 0
-849 -750 -693 0
-850 -751 -691 0
-851 -752 -692 0
-852 -753 -693 0
-853 -754 -691 0
-854 -755 -692 0
-855 -756 -693 0
-856 -757 -691 0
-857 -758 -692 0
-858 -759 -693 0
-859 -760 -691 0
-860 -761 -692 0
-861 -762 -693 0
-862 -763 -691 0
-863 -764 -692 0
-864 -765 -693 0
-865 -766 -691 0
-866 -767 -692 0
-867 -768 -693 0
-868 -769 -691 0
-869 -770 -692 0
-870 -771 -693 0
-871 -772 -691 0
-872 -773 -692 0
-873 -774 -693 0
-874 -775 -691 0
-875 -776 -692 0
-876 -777 -693 0
-877 -778 -691 0
-878 -779 -692 0
-879 -780 -693 0
-880 -781 -691 0
-881 -782 -692 0
-882 -783 -693 0
-883 -784 -691 0
-884 -785 -692 0
-885 -786 -693 0
-886 -787 -691 0
-887 -788 -692 0
-888 -789 -693 0
-889 -790 -691 0
-890 -791 -692 0
-891 -792 -693 0
-892 -793 -691 0
-893 -794 -692 0
-894 -795 -693 0
-895 -796 -691 0
-896 -797 -692 0
-897 -798 -693 0
-898 -799 -691 0
-899 -800 -692 0
-900 -801 -693 0
-901 -802 -691 0
-902 -803 -692 0
-903 -804 -693 0
-904 -805 -691 0
-905 -806 -692 0
-906 -807 -693 0
-907 -808 -691 0
-908 -809 -692 0
-909 -810 -693 0
-910 -811 -691 0
-911 -812 -692 0
-912 -813 -693 0
-913 -814 -691 0
-914 -815 -692 0
-915 -816 -693 0
-916 -817 -691 0
-917 -818 -692 0
-918 -819 -693 0
-919 -820 -691 0
-920 -821 -692 0
-921 -822 -693 0
-922 -823 -691 0
-923 -824 -692 0
-924 -825 -693 0
-925 -826 -691 0
-926 -827 -692 0
-927 -828 -693 0
-928 -829 -691 0
-929 -830 -692 0
-930 -831 -693 0
-931 -832 -691 0
-932 -833 -692 0
-933 -834 -693 0
-934 -835 -691 0
-935 -836 -692 0
-936 -837 -693 0
-937 -838 -691 0
-938 -839 -692 0
-939 -840 -693 0
-940 -841 -691 0
-941 -842 -692 0
-942 -843 -693 0
-943 -844 -691 0
-944 -845 -692 0
-945 -846 -693 0
-946 -847 -691 0
-947 -848 -692 0
-948 -849 -693 0
-949 -850 -691 0
-950 -851 -692 0
-951 -852 -693 0
-952 -853 -691 0
-953 -854 -692 0
-954 -855 -693 0
-955 -856 -691 0
-956 -857 -692 0
-957 -858 -693 0
-958 -859 -691 0
-959 -860 -692 0
-960 -861 -693 0
-961 -862 -691 0
-962 -863 -692 0
-963 -864 -693 0
-964 -865 -691 0
-965 -866 -692 0
-966 -867 -693 0
-967 -868 -691 0
-968 -869 -692 0
-969 -870 -693 0
-970 -871 -691 0
-971 -872 -692 0
-972 -873 -693 0
-973 -874 -691 0
-974 -875 -692 0
-975 -876 -693 0
-976 -877 -691 0
-977 -878 -692 0
-978 -879 -693 0
-979 -880 -691 0
-980 -881 -692 0
-981 -882 -693 0
-982 -883 -691 0
-983 -884 -692 0
-984 -885 -693 0
-985 -886 -691 0
-986 -887 -692 0
-987 -888 -693 0
-988 -889 -691 0
-989 -890 -692 0
-990 -891 -693 0
-991 -892 -691 0
-992 -893 -692 0
-993 -894 -693 0
-994 -895 -691 0
-995 -896 -692 0
-996 -897 -693 0
-997 -898 -691 0
-998 -899 -692 0
-999 -900 -693 0
-1000 -901 -691 0
-1001 -902 -692 0
-1002 -903 -693 0
-1003 -904 -691 0
-1004 -905 -692 0
-1005 -906 -693 0
-1006 -907 -691 0
-1007 -908 -692 0
-1008 -909 -693 0
-1009 -910 -691 0
-1010 -911 -692 0
-1011 -912 -693 0
-1012 -913 -691 0
-1013 -914 -692 0
-1014 -915 -693 0
-1015 -916 -691 0
-1016 -917 -692 0
-1017 -918 -693 0
-1018 -919 -691 0
-1019 -920 -692 0
-1020 -921 -693 0
-1021 -922 -691 0
-1022 -923 -692 0
-1023 -924 -693 0
-1024 -925 -691 0
-1025 -926 -692 0
-1026 -927 -693 0
-1027 -928 -691 0
-1028 -929 -692 0
-1029 -930 -693 0
-712 -103 -1 0
-713 -104 -2 0
-714 -105 -3 0
-712 -106 -4 0
-713 -107 -5 0
-714 -108 -6 0
-712 -109 -7 0
-713 -110 -8 0
-714 -111 -9 0
-712 -112 -10 0
-713 -113 -11 0
-714 -114 -12 0
-712 -115 -13 0
-713 -116 -14 0
-714 -117 -15 0
-712 -118 -16 0
-713 -119 -17 0
-714 -120 -18 0
-712 -121 -19 0
-713 -122 -20 0
-714 -123 -21 0
-712 -124 -22 0
-713 -125 -23 0
-714 -126 -24 0
-712 -127 -25 0
-713 -128 -26 0
-714 -129 -27 0
-712 -130 -28 0
-713 -131 -29 0
-714 -132 -30 0
-712 -133 -31 0
-713 -134 -32 0
-714 -135 -33 0
-712 -136 -34 0
-713 -137 -35 0
-714 -138 -36 0
-712 -139 -37 0
-713 -140 -38 0
-714 -141 -39 0
-712 -142 -40 0
-713 -143 -41 0
-714 -144 -42 0
-712 -145 -43 0
-713 -146 -44 0
-714 -147 -45 0
-712 -148 -46 0
-713 -149 -47 0
-714 -150 -48 0
-712 -151 -49 0
-713 -152 -50 0
-714 -153 -51 0
-712 -154 -52 0
-713 -155 -53 0
-714 -156 -54 0
-712 -157 -55 0
-713 -158 -56 0
-714 -159 -57 0
-712 -160 -58 0
-713 -161 -59 0
-714 -162 -60 0
-712 -163 -61 0
-713 -164 -62 0
-714 -165 -63 0
-712 -166 -64 0
-713 -167 -65 0
-714 -168 -66 0
-712 -169 -67 0
-713 -170 -68 0
-714 -171 -69 0
-712 -172 -70 0
-713 -173 -71 0
-714 -174 -72 0
-712 -175 -73 0
-713 -176 -74 0
-714 -177 -75 0
-712 -178 -76 0
-713 -179 -77 0
-714 -180 -78 0
-712 -181 -79 0
-713 -182 -80 0
-714 -183 -81 0
-712 -184 -82 0
-713 -185 -83 0
-714 -186 -84 0
-712 -187 -85 0
-713 -188 -86 0
-714 -189 -87 0
-712 -190 -88 0
-713 -191 -89 0
-714 -192 -90 0
-712 -193 -91 0
-713 -194 -92 0
-714 -195 -93 0
-712 -196 -94 0
-713 -197 -95 0
-714 -198 -96 0
-712 -199 -97 0
-713 -200 -98 0
-714 -201 -99 0
-712 -202 -100 0
-713 -203 -101 0
-714 -204 -102 0
-712 -205 -103 0
-713 -206 -104 0
-714 -207 -105 0
-712 -208 -106 0
-713 -209 -107 0
-714 -210 -108 0
-712 -211 -109 0
-713 -212 -110 0
-714 -213 -111 0
-712 -214 -112 0
-713 -215 -113 0
-714 -216 -114 0
-712 -217 -115 0
-713 -218 -116 0
-714 -219 -117 0
-712 -220 -118 0
-713 -221 -119 0
-714 -222 -120 0
-712 -223 -121 0
-713 -224 -122 0
-714 -225 -123 0
-712 -226 -124 0
-713 -227 -125 0
-714 -228 -126 0
-712 -229 -127 0
-713 -230 -128 0
-714 -231 -129 0
-712 -232 -130 0
-713 -233 -131 0
-714 -234 -132 0
-712 -235 -133 0
-713 -236 -134 0
-714 -237 -135 0
-712 -238 -136 0
-713 -239 -137 0
-714 -240 -138 0
-712 -241 -139 0
-713 -242 -140 0
-714 -243 -141 0
-712 -244 -142 0
-713 -245 -143 0
-714 -246 -144 0
-712 -247 -145 0
-713 -248 -146 0
-714 -249 -147 0
-712 -250 -148 0
-713 -251 -149 0
-714 -252 -150 0
-712 -253 -151 0
-713 -254 -152 0
-714 -255 -153 0
-712 -256 -154 0
-713 -257 -155 0
-714 -258 -156 0
-712 -259 -157 0
-713 -260 -158 0
-714 -261 -159 0
-712 -262 -160 0
-713 -263 -161 0
-714 -264 -162 0
-712 -265 -163 0
-713 -266 -164 0
-714 -267 -165 0
-712 -268 -166 0
-713 -269 -167 0
-714 -270 -168 0
-712 -271 -169 0
-713 -272 -170 0
-714 -273 -171 0
-712 -274 -172 0
-713 -275 -173 0
-714 -276 -174 0
-712 -277 -175 0
-713 -278 -176 0
-714 -279 -177 0
-712 -280 -178 0
-713 -281 -179 0
-714 -282 -180 0
-712 -283 -181 0
-713 -284 -182 0
-714 -285 -183 0
-712 -286 -184 0
-713 -287 -185 0
-714 -288 -186 0
-712 -289 -187 0
-713 -290 -188 0
-714 -291 -189 0
-712 -292 -190 0
-713 -293 -191 0
-714 -294 -192 0
-712 -295 -193 0
-713 -296 -194 0
-714 -297 -195 0
-712 -298 -196 0
-713 -299 -197 0
-714 -300 -198 0
-712 -301 -199 0
-713 -302 -200 0
-714 -303 -201 0
-712 -304 -202 0
-713 -305 -203 0
-714 -306 -204 0
-712 -307 -205 0
-713 -308 -206 0
-714 -309 -207 0
-712 -310 -208 0
-713 -311 -209 0
-714 -312 -210 0
-712 -313 -211 0
-713 -314 -212 0
-714 -315 -213 0
-712 -316 -214 0
-713 -317 -215 0
-714 -318 -216 0
-712 -319 -217 0
-713 -320 -218 0
-714 -321 -219 0
-712 -322 -220 0
-713 -323 -221 0
-714 -324 -222 0
-712 -325 -223 0
-713 -326 -224 0
-714 -327 -225 0
-712 -328 -226 0
-713 -329 -227 0
-714 -330 -228 0
-712 -331 -229 0
-713 -332 -230 0
-714 -333 -231 0
-712 -334 -232 0
-713 -335 -233 0
-714 -336 -234 0
-712 -337 -235 0
-713 -338 -236 0
-714 -339 -237 0
-712 -340 -238 0
-713 -341 -239 0
-714 -342 -240 0
-712 -343 -241 0
-713 -344 -242 0
-714 -345 -243 0
-712 -346 -244 0
-713 -347 -245 0
-714 -348 -246 0
-712 -349 -247 0
-713 -350 -248 0
-714 -351 -249 0
-712 -352 -250 0
-713 -353 -251 0
-714 -354 -252 0
-712 -355 -253 0
-713 -356 -254 0
-714 -357 -255 0
-712 -358 -256 0
-713 -359 -257 0
-714 -360 -258 0
-712 -361 -259 0
-713 -362 -260 0
-714 -363 -261 0
-712 -364 -262 0
-713 -365 -263 0
-714 -366 -264 0
-712 -367 -265 0
-713 -368 -266 0
-714 -369 -267 0
-712 -370 -268 0
-713 -371 -269 0
-714 -372 -270 0
-712 -373 -271 0
-713 -374 -272 0
-714 -375 -273 0
-712 -376 -274 0
-713 -377 -275 0
-714 -378 -276 0
-712 -379 -277 0
-713 -380 -278 0
-714 -381 -279 0
-712 -382 -280 0
-713 -383 -281 0
-714 -384 -282 0
-712 -385 -283 0
-713 -386 -284 0
-714 -387 -285 0
-712 -388 -286 0
-713 -389 -287 0
-714 -390 -288 0
-712 -391 -289 0
-713 -392 -290 0
-714 -393 -291 0
-712 -394 -292 0
-713 -395 -293 0
-714 -396 -294 0
-712 -397 -295 0
-713 -398 -296 0
-714 -399 -297 0
-712 -400 -298 0
-713 -401 -299 0
-714 -402 -300 0
-712 -403 -301 0
-713 -404 -302 0
-714 -405 -303 0
-712 -406 -304 0
-713 -407 -305 0
-714 -408 -306 0
-712 -409 -307 0
-713 -410 -308 0
-714 -411 -309 0
-712 -412 -310 0
-713 -413 -311 0
-714 -414 -312 0
-712 -415 -313 0
-713 -416 -314 0
-714 -417 -315 0
-712 -418 -316 0
-713 -419 -317 0
-714 -420 -318 0
-712 -421 -319 0
-713 -422 -320 0
-714 -423 -321 0
-712 -424 -322 0
-713 -425 -323 0
-714 -426 -324 0
-712 -427 -325 0
-713 -428 -326 0
-714 -429 -327 0
-712 -430 -328 0
-713 -431 -329 0
-714 -432 -330 0
-712 -433 -331 0
-713 -434 -332 0
-714 -435 -333 0
-712 -436 -334 0
-713 -437 -335 0
-714 -438 -336 0
-712 -439 -337 0
-713 -440 -338 0
-714 -441 -339 0
-712 -442 -340 0
-713 -443 -341 0
-714 -444 -342 0
-712 -445 -343 0
-713 -446 -344 0
-714 -447 -345 0
-712 -448 -346 0
-713 -449 -347 0
-714 -450 -348 0
-712 -451 -349 0
-713 -452 -350 0
-714 -453 -351 0
-712 -454 -352 0
-713 -455 -353 0
-714 -456 -354 0
-712 -457 -355 0
-713 -458 -356 0
-714 -459 -357 0
-712 -460 -358 0
-713 -461 -359 0
-714 -462 -360 0
-712 -463 -361 0
-713 -464 -362 0
-714 -465 -363 0
-712 -466 -364 0
-713 -467 -365 0
-714 -468 -366 0
-712 -469 -367 0
-713 -470 -368 0
-714 -471 -369 0
-712 -472 -370 0
-713 -473 -371 0
-714 -474 -372 0
-712 -475 -373 0
-713 -476 -374 0
-714 -477 -375 0
-712 -478 -376 0
-713 -479 -377 0
-714 -480 -378 0
-712 -481 -379 0
-713 -482 -380 0
-714 -483 -381 0
-712 -484 -382 0
-713 -485 -383 0
-714 -486 -384 0
-712 -487 -385 0
-713 -488 -386 0
-714 -489 -387 0
-712 -490 -388 0
-713 -491 -389 0
-714 -492 -390 0
-712 -493 -391 0
-713 -494 -392 0
-714 -495 -393 0
-712 -496 -394 0
-713 -497 -395 0
-714 -498 -396 0
-712 -499 -397 0
-713 -500 -398 0
-714 -501 -399 0
-712 -502 -400 0
-713 -503 -401 0
-714 -504 -402 0
-712 -505 -403 0
-713 -506 -404 0
-714 -507 -405 0
-712 -508 -406 0
-713 -509 -407 0
-714 -510 -408 0
-712 -511 -409 0
-713 -512 -410 0
-714 -513 -411 0
-712 -514 -412 0
-713 -515 -413 0
-714 -516 -414 0
-712 -517 -415 0
-713 -518 -416 0
-714 -519 -417 0
-712 -520 -418 0
-713 -521 -419 0
-714 -522 -420 0
-712 -523 -421 0
-713 -524 -422 0
-714 -525 -423 0
-712 -526 -424 0
-713 -527 -425 0
-714 -528 -426 0
-712 -529 -427 0
-713 -530 -428 0
-714 -531 -429 0
-712 -532 -430 0
-713 -533 -431 0
-714 -534 -432 0
-712 -535 -433 0
-713 -536 -434 0
-714 -537 -435 0
-712 -538 -436 0
-713 -539 -437 0
-714 -540 -438 0
-712 -541 -439 0
-713 -542 -440 0
-714 -543 -441 0
-712 -544 -442 0
-713 -545 -443 0
-714 -546 -444 0
-712 -547 -445 0
-713 -548 -446 0
-714 -549 -447 0
-712 -550 -448 0
-713 -551 -449 0
-714 -552 -450 0
-712 -553 -451 0
-713 -554 -452 0
-714 -555 -453 0
-712 -556 -454 0
-713 -557 -455 0
-714 -558 -456 0
-712 -559 -457 0
-713 -560 -458 0
-714 -561 -459 0
-712 -562 -460 0
-713 -563 -461 0
-714 -564 -462 0
-712 -565 -463 0
-713 -566 -464 0
-714 -567 -465 0
-712 -568 -466 0
-713 -569 -467 0
-714 -570 -468 0
-712 -571 -469 0
-713 -572 -470 0
-714 -573 -471 0
-712 -574 -472 0
-713 -575 -473 0
-714 -576 -474 0
-712 -577 -475 0
-713 -578 -476 0
-714 -579 -477 0
-712 -580 -478 0
-713 -581 -479 0
-714 -582 -480 0
-712 -583 -481 0
-713 -584 -482 0
-714 -585 -483 0
-712 -586 -484 0
-713 -587 -485 0
-714 -588 -486 0
-712 -589 -487 0
-713 -590 -488 0
-714 -591 -489 0
-712 -592 -490 0
-713 -593 -491 0
-714 -594 -492 0
-712 -595 -493 0
-713 -596 -494 0
-714 -597 -495 0
-712 -598 -496 0
-713 -599 -497 0
-714 -600 -498 0
-712 -601 -499 0
-713 -602 -500 0
-714 -603 -501 0
-712 -604 -502 0
-713 -605 -503 0
-714 -606 -504 0
-712 -607 -505 0
-713 -608 -506 0
-714 -609 -507 0
-712 -610 -508 0
-713 -611 -509 0
-714 -612 -510 0
-712 -613 -511 0
-713 -614 -512 0
-714 -615 -513 0
-712 -616 -514 0
-713 -617 -515 0
-714 -618 -516 0
-712 -619 -517 0
-713 -620 -518 0
-714 -621 -519 0
-712 -622 -520 0
-713 -623 -521 0
-714 -624 -522 0
-712 -625 -523 0
-713 -626 -524 0
-714 -627 -525 0
-712 -628 -526 0
-713 -629 -527 0
-714 -630 -528 0
-712 -631 -529 0
-713 -632 -530 0
-714 -633 -531 0
-712 -634 -532 0
-713 -635 -533 0
-714 -636 -534 0
-712 -637 -535 0
-713 -638 -536 0
-714 -639 -537 0
-712 -640 -538 0
-713 -641 -539 0
-714 -642 -540 0
-712 -643 -541 0
-713 -644 -542 0
-714 -645 -543 0
-712 -646 -544 0
-713 -647 -545 0
-714 -648 -546 0
-712 -649 -547 0
-713 -650 -548 0
-714 -651 -549 0
-712 -652 -550 0
-713 -653 -551 0
-714 -654 -552 0
-712 -655 -553 0
-713 -656 -554 0
-714 -657 -555 0
-712 -658 -556 0
-713 -659 -557 0
-714 -660 -558 0
-712 -661 -559 0
-713 -662 -560 0
-714 -663 -561 0
-712 -664 -562 0
-713 -665 -563 0
-714 -666 -564 0
-712 -667 -565 0
-713 -668 -566 0
-714 -669 -567 0
-712 -670 -568 0
-713 -671 -569 0
-714 -672 -570 0
-712 -673 -571 0
-713 -674 -572 0
-714 -675 -573 0
-712 -676 -574 0
-713 -677 -575 0
-714 -678 -576 0
-712 -679 -577 0
-713 -680 -578 0
-714 -681 -579 0
-712 -682 -580 0
-713 -683 -581 0
-714 -684 -582 0
-712 -685 -583 0
-713 -686 -584 0
-714 -687 -585 0
-712 -688 -586 0
-713 -689 -587 0
-714 -690 -588 0
-712 -691 -589 0
-713 -692 -590 0
-714 -693 -591 0
-712 -694 -592 0
-713 -695 -593 0
-714 -696 -594 0
-712 -697 -595 0
-713 -698 -596 0
-714 -699 -597 0
-712 -700 -598 0
-713 -701 -599 0
-714 -702 -600 0
-712 -703 -601 0
-713 -704 -602 0
-714 -705 -603 0
-712 -706 -604 0
-713 -707 -605 0
-714 -708 -606 0
-712 -709 -607 0
-713 -710 -608 0
-714 -711 -609 0
-712 -610 0
-713 -611 0
-714 -612 0
-715 -712 -613 0
-716 -713 -614 0
-717 -714 -615 0
-718 -712 -616 0
-719 -713 -617 0
-720 -714 -618 0
-721 -712 -619 0
-722 -713 -620 0
-723 -714 -621 0
-724 -712 -622 0
-725 -713 -623 0
-726 -714 -624 0
-727 -712 -625 0
-728 -713 -626 0
-729 -714 -627 0
-730 -712 -628 0
-731 -713 -629 0
-732 -714 -630 0
-733 -712 -631 0
-734 -713 -632 0
-735 -714 -633 0
-736 -712 -634 0
-737 -713 -635 0
-738 -714 -636 0
-739 -712 -637 0
-740 -713 -638 0
-741 -714 -639 0
-742 -712 -640 0
-743 -713 -641 0
-744 -714 -642 0
-745 -712 -643 0
-746 -713 -644 0
-747 -714 -645 0
-748 -712 -646 0
-749 -713 -647 0
-750 -714 -648 0
-751 -712 -649 0
-752 -713 -650 0
-753 -714 -651 0
-754 -712 -652 0
-755 -713 -653 0
-756 -714 -654 0
-757 -712 -655 0
-758 -713 -656 0
-759 -714 -657 0
-760 -712 -658 0
-761 -713 -659 0
-762 -714 -660 0
-763 -712 -661 0
-764 -713 -662 0
-765 -714 -663 0
-766 -712 -664 0
-767 -713 -665 0
-768 -714 -666 0
-769 -712 -667 0
-770 -713 -668 0
-771 -714 -669 0
-772 -712 -670 0
-773 -713 -671 0
-774 -714 -672 0
-775 -712 -673 0
-776 -713 -674 0
-777 -714 -675 0
-778 -712 -676 0
-779 -713 -677 0
-780 -714 -678 0
-781 -712 -679 0
-782 -713 -680 0
-783 -714 -681 0
-784 -712 -682 0
-785 -713 -683 0
-786 -714 -684 0
-787 -712 -685 0
-788 -713 -686 0
-789 -714 -687 0
-790 -712 -688 0
-791 -713 -689 0
-792 -714 -690 0
-793 -712 -691 0
-794 -713 -692 0
-795 -714 -693 0
-796 -712 -694 0
-797 -713 -695 0
-798 -714 -696 0
-799 -712 -697 0
-800 -713 -698 0
-801 -714 -699 0
-802 -712 -700 0
-803 -713 -701 0
-804 -714 -702 0
-805 -712 -703 0
-806 -713 -704 0
-807 -714 -705 0
-808 -712 -706 0
-809 -713 -707 0
-810 -714 -708 0
-811 -712 -709 0
-812 -713 -710 0
-813 -714 -711 0
-814 -712 0
-815 -713 0
-816 -714 0
-817 -715 -712 0
-818 -716 -713 0
-819 -717 -714 0
-820 -718 -712 0
-821 -719 -713 0
-822 -720 -714 0
-823 -721 -712 0
-824 -722 -713 0
-825 -723 -714 0
-826 -724 -712 0
-827 -725 -713 0
-828 -726 -714 0
-829 -727 -712 0
-830 -728 -713 0
-831 -729 -714 0
-832 -730 -712 0
-833 -731 -713 0
-834 -732 -714 0
-835 -733 -712 0
-836 -734 -713 0
-837 -735 -714 0
-838 -736 -712 0
-839 -737 -713 0
-840 -738 -714 0
-841 -739 -712 0
-842 -740 -713 0
-843 -741 -714 0
-844 -742 -712 0
-845 -743 -713 0
-846 -744 -714 0
-847 -745 -712 0
-848 -746 -713 0
-849 -747 -714 0
-850 -748 -712 0
-851 -749 -713 0
-852 -750 -714 0
-853 -751 -712 0
-854 -752 -713 0
-855 -753 -714 0
-856 -754 -712 0
-857 -755 -713 0
-858 -756 -714 0
-859 -757 -712 0
-860 -758 -713 0
-861 -759 -714 0
-862 -760 -712 0
-863 -761 -713 0
-864 -762 -714 0
-865 -763 -712 0
-866 -764 -713 0
-867 -765 -714 0
-868 -766 -712 0
-869 -767 -713 0
-870 -768 -714 0
-871 -769 -712 0
-872 -770 -713 0
-873 -771 -714 0
-874 -772 -712 0
-875 -773 -713 0
-876 -774 -714 0
-877 -775 -712 0
-878 -776 -713 0
-879 -777 -714 0
-880 -778 -712 0
-881 -779 -713 0
-882 -780 -714 0
-883 -781 -712 0
-884 -782 -713 0
-885 -783 -714 0
-886 -784 -712 0
-887 -785 -713 0
-888 -786 -714 0
-889 -787 -712 0
-890 -788 -713 0
-891 -789 -714 0
-892 -790 -712 0
-893 -791 -713 0
-894 -792 -714 0
-895 -793 -712 0
-896 -794 -713 0
-897 -795 -714 0
-898 -796 -712 0
-899 -797 -713 0
-900 -798 -714 0
-901 -799 -712 0
-902 -800 -713 0
-903 -801 -714 0
-904 -802 -712 0
-905 -803 -713 0
-906 -804 -714 0
-907 -805 -712 0
-908 -806 -713 0
-909 -807 -714 0
-910 -808 -712 0
-911 -809 -713 0
-912 -810 -714 0
-913 -811 -712 0
-914 -812 -713 0
-915 -813 -714 0
-916 -814 -712 0
-917 -815 -713 0
-918 -816 -714 0
-919 -817 -712 0
-920 -818 -713 0
-921 -819 -714 0
-922 -820 -712 0
-923 -821 -713 0
-924 -822 -714 0
-925 -823 -712 0
-926 -824 -713 0
-927 -825 -714 0
-928 -826 -712 0
-929 -827 -713 0
-930 -828 -714 0
-931 -829 -712 0
-932 -830 -713 0
-933 -831 -714 0
-934 -832 -712 0
-935 -833 -713 0
-936 -834 -714 0
-937 -835 -712 0
-938 -836 -713 0
-939 -837 -714 0
-940 -838 -712 0
-941 -839 -713 0
-942 -840 -714 0
-943 -841 -712 0
-944 -842 -713 0
-945 -843 -714 0
-946 -844 -712 0
-947 -845 -713 0
-948 -846 -714 0
-949 -847 -712 0
-950 -848 -713 0
-951 -849 -714 0
-952 -850 -712 0
-953 -851 -713 0
-954 -852 -714 0
-955 -853 -712 0
-956 -854 -713 0
-957 -855 -714 0
-958 -856 -712 0
-959 -857 -713 0
-960 -858 -714 0
-961 -859 -712 0
-962 -860 -713 0
-963 -861 -714 0
-964 -862 -712 0
-965 -863 -713 0
-966 -864 -714 0
-967 -865 -712 0
-968 -866 -713 0
-969 -867 -714 0
-970 -868 -712 0
-971 -869 -713 0
-972 -870 -714 0
-973 -871 -712 0
-974 -872 -713 0
-975 -873 -714 0
-976 -874 -712 0
-977 -875 -713 0
-978 -876 -714 0
-979 -877 -712 0
-980 -878 -713 0
-981 -879 -714 0
-982 -880 -712 0
-983 -881 -713 0
-984 -882 -714 0
-985 -883 -712 0
-986 -884 -713 0
-987 -885 -714 0
-988 -886 -712 0
-989 -887 -713 0
-990 -888 -714 0
-991 -889 -712 0
-992 -890 -713 0
-993 -891 -714 0
-994 -892 -712 0
-995 -893 -713 0
-996 -894 -714 0
-997 -895 -712 0
-998 -896 -713 0
-999 -897 -714 0
-1000 -898 -712 0
-1001 -899 -713 0
-1002 -900 -714 0
-1003 -901 -712 0
-1004 -902 -713 0
-1005 -903 -714 0
-1006 -904 -712 0
-1007 -905 -713 0
-1008 -906 -714 0
-1009 -907 -712 0
-1010 -908 -713 0
-1011 -909 -714 0
-1012 -910 -712 0
-1013 -911 -713 0
-1014 -912 -714 0
-1015 -913 -712 0
-1016 -914 -713 0
-1017 -915 -714 0
-1018 -916 -712 0
-1019 -917 -713 0
-1020 -918 -714 0
-1021 -919 -712 0
-1022 -920 -713 0
-1023 -921 -714 0
-1024 -922 -712 0
-1025 -923 -713 0
-1026 -924 -714 0
-1027 -925 -712 0
-1028 -926 -713 0
-1029 -927 -714 0
-733 -106 -1 0
-734 -107 -2 0
-735 -108 -3 0
-733 -109 -4 0
-734 -110 -5 0
-735 -111 -6 0
-733 -112 -7 0
-734 -113 -8 0
-735 -114 -9 0
-733 -115 -10 0
-734 -116 -11 0
-735 -117 -12 0
-733 -118 -13 0
-734 -119 -14 0
-735 -120 -15 0
-733 -121 -16 0
-734 -122 -17 0
-735 -123 -18 0
-733 -124 -19 0
-734 -125 -20 0
-735 -126 -21 0
-733 -127 -22 0
-734 -128 -23 0
-735 -129 -24 0
-733 -130 -25 0
-734 -131 -26 0
-735 -132 -27 0
-733 -133 -28 0
-734 -134 -29 0
-735 -135 -30 0
-733 -136 -31 0
-734 -137 -32 0
-735 -138 -33 0
-733 -139 -34 0
-734 -140 -35 0
-735 -141 -36 0
-733 -142 -37 0
-734 -143 -38 0
-735 -144 -39 0
-733 -145 -40 0
-734 -146 -41 0
-735 -147 -42 0
-733 -148 -43 0
-734 -149 -44 0
-735 -150 -45 0
-733 -151 -46 0
-734 -152 -47 0
-735 -153 -48 0
-733 -154 -49 0
-734 -155 -50 0
-735 -156 -51 0
-733 -157 -52 0
-734 -158 -53 0
-735 -159 -54 0
-733 -160 -55 0
-734 -161 -56 0
-735 -162 -57 0
-733 -163 -58 0
-734 -164 -59 0
-735 -165 -60 0
-733 -166 -61 0
-734 -167 -62 0
-735 -168 -63 0
-733 -169 -64 0
-734 -170 -65 0
-735 -171 -66 0
-733 -172 -67 0
-734 -173 -68 0
-735 -174 -69 0
-733 -175 -70 0
-734 -176 -71 0
-735 -177 -72 0
-733 -178 -73 0
-734 -179 -74 0
-735 -180 -75 0
-733 -181 -76 0
-734 -182 -77 0
-735 -183 -78 0
-733 -184 -79 0
-734 -185 -80 0
-735 -186 -81 0
-733 -187 -82 0
-734 -188 -83 0
-735 -189 -84 0
-733 -190 -85 0
-734 -191 -86 0
-735 -192 -87 0
-733 -193 -88 0
-734 -194 -89 0
-735 -195 -90 0
-733 -196 -91 0
-734 -197 -92 0
-735 -198 -93 0
-733 -199 -94 0
-734 -200 -95 0
-735 -201 -96 0
-733 -202 -97 0
-734 -203 -98 0
-735 -204 -99 0
-733 -205 -100 0
-734 -206 -101 0
-735 -207 -102 0
-733 -208 -103 0
-734 -209 -104 0
-735 -210 -105 0
-733 -211 -106 0
-734 -212 -107 0
-735 -213 -108 0
-733 -214 -109 0
-734 -215 -110 0
-735 -216 -111 0
-733 -217 -112 0
-734 -218 -113 0
-735 -219 -114 0
-733 -220 -115 0
-734 -221 -116 0
-735 -222 -117 0
-733 -223 -118 0
-734 -224 -119 0
-735 -225 -120 0
-733 -226 -121 0
-734 -227 -122 0
-735 -228 -123 0
-733 -229 -124 0
-734 -230 -125 0
-735 -231 -126 0
-733 -232 -127 0
-734 -233 -128 0
-735 -234 -129 0
-733 -235 -130 0
-734 -236 -131 0
-735 -237 -132 0
-733 -238 -133 0
-734 -239 -134 0
-735 -240 -135 0
-733 -241 -136 0
-734 -242 -137 0
-735 -243 -138 0
-733 -244 -139 0
-734 -245 -140 0
-735 -246 -141 0
-733 -247 -142 0
-734 -248 -143 0
-735 -249 -144 0
-733 -250 -145 0
-734 -251 -146 0
-735 -252 -147 0
-733 -253 -148 0
-734 -254 -149 0
-735 -255 -150 0
-733 -256 -151 0
-734 -257 -152 0
-735 -258 -153 0
-733 -259 -154 0
-734 -260 -155 0
-735 -261 -156 0
-733 -262 -157 0
-734 -263 -158 0
-735 -264 -159 0
-733 -265 -160 0
-734 -266 -161 0
-735 -267 -162 0
-733 -268 -163 0
-734 -269 -164 0
-735 -270 -165 0
-733 -271 -166 0
-734 -272 -167 0
-735 -273 -168 0
-733 -274 -169 0
-734 -275 -170 0
-735 -276 -171 0
-733 -277 -172 0
-734 -278 -173 0
-735 -279 -174 0
-733 -280 -175 0
-734 -281 -176 0
-735 -282 -177 0
-733 -283 -178 0
-734 -284 -179 0
-735 -285 -180 0
-733 -286 -181 0
-734 -287 -182 0
-735 -288 -183 0
-733 -289 -184 0
-734 -290 -185 0
-735 -291 -186 0
-733 -292 -187 0
-734 -293 -188 0
-735 -294 -189 0
-733 -295 -190 0
-734 -296 -191 0
-735 -297 -192 0
-733 -298 -193 0
-734 -299 -194 0
-735 -300 -195 0
-733 -301 -196 0
-734 -302 -197 0
-735 -303 -198 0
-733 -304 -199 0
-734 -305 -200 0
-735 -306 -201 0
-733 -307 -202 0
-734 -308 -203 0
-735 -309 -204 0
-733 -310 -205 0
-734 -311 -206 0
-735 -312 -207 0
-733 -313 -208 0
-734 -314 -209 0
-735 -315 -210 0
-733 -316 -211 0
-734 -317 -212 0
-735 -318 -213 0
-733 -319 -214 0
-734 -320 -215 0
-735 -321 -216 0
-733 -322 -217 0
-734 -323 -218 0
-735 -324 -219 0
-733 -325 -220 0
-734 -326 -221 0
-735 -327 -222 0
-733 -328 -223 0
-734 -329 -224 0
-735 -330 -225 0
-733 -331 -226 0
-734 -332 -227 0
-735 -333 -228 0
-733 -334 -229 0
-734 -335 -230 0
-735 -336 -231 0
-733 -337 -232 0
-734 -338 -233 0
-735 -339 -234 0
-733 -340 -235 0
-734 -341 -236 0
-735 -342 -237 0
-733 -343 -238 0
-734 -344 -239 0
-735 -345 -240 0
-733 -346 -241 0
-734 -347 -242 0
-735 -348 -243 0
-733 -349 -244 0
-734 -350 -245 0
-735 -351 -246 0
-733 -352 -247 0
-734 -353 -248 0
-735 -354 -249 0
-733 -355 -250 0
-734 -356 -251 0
-735 -357 -252 0
-733 -358 -253 0
-734 -359 -254 0
-735 -360 -255 0
-733 -361 -256 0
-734 -362 -257 0
-735 -363 -258 0
-733 -364 -259 0
-734 -365 -260 0
-735 -366 -261 0
-733 -367 -262 0
-734 -368 -263 0
-735 -369 -264 0
-733 -370 -265 0
-734 -371 -266 0
-735 -372 -267 0
-733 -373 -268 0
-734 -374 -269 0
-735 -375 -270 0
-733 -376 -271 0
-734 -377 -272 0
-735 -378 -273 0
-733 -379 -274 0
-734 -380 -275 0
-735 -381 -276 0
-733 -382 -277 0
-734 -383 -278 0
-735 -384 -279 0
-733 -385 -280 0
-734 -386 -281 0
-735 -387 -282 0
-733 -388 -283 0
-734 -389 -284 0
-735 -390 -285 0
-733 -391 -286 0
-734 -392 -287 0
-735 -393 -288 0
-733 -394 -289 0
-734 -395 -290 0
-735 -396 -291 0
-733 -397 -292 0
-734 -398 -293 0
-735 -399 -294 0
-733 -400 -295 0
-734 -401 -296 0
-735 -402 -297 0
-733 -403 -298 0
-734 -404 -299 0
-735 -405 -300 0
-733 -406 -301 0
-734 -407 -302 0
-735 -408 -303 0
-733 -409 -304 0
-734 -410 -305 0
-735 -411 -306 0
-733 -412 -307 0
-734 -413 -308 0
-735 -414 -309 0
-733 -415 -310 0
-734 -416 -311 0
-735 -417 -312 0
-733 -418 -313 0
-734 -419 -314 0
-735 -420 -315 0
-733 -421 -316 0
-734 -422 -317 0
-735 -423 -318 0
-733 -424 -319 0
-734 -425 -320 0
-735 -426 -321 0
-733 -427 -322 0
-734 -428 -323 0
-735 -429 -324 0
-733 -430 -325 0
-734 -431 -326 0
-735 -432 -327 0
-733 -433 -328 0
-734 -434 -329 0
-735 -435 -330 0
-733 -436 -331 0
-734 -437 -332 0
-735 -438 -333 0
-733 -439 -334 0
-734 -440 -335 0
-735 -441 -336 0
-733 -442 -337 0
-734 -443 -338 0
-735 -444 -339 0
-733 -445 -340 0
-734 -446 -341 0
-735 -447 -342 0
-733 -448 -343 0
-734 -449 -344 0
-735 -450 -345 0
-733 -451 -346 0
-734 -452 -347 0
-735 -453 -348 0
-733 -454 -349 0
-734 -455 -350 0
-735 -456 -351 0
-733 -457 -352 0
-734 -458 -353 0
-735 -459 -354 0
-733 -460 -355 0
-734 -461 -356 0
-735 -462 -357 0
-733 -463 -358 0
-734 -464 -359 0
-735 -465 -360 0
-733 -466 -361 0
-734 -467 -362 0
-735 -468 -363 0
-733 -469 -364 0
-734 -470 -365 0
-735 -471 -366 0
-733 -472 -367 0
-734 -473 -368 0
-735 -474 -369 0
-733 -475 -370 0
-734 -476 -371 0
-735 -477 -372 0
-733 -478 -373 0
-734 -479 -374 0
-735 -480 -375 0
-733 -481 -376 0
-734 -482 -377 0
-735 -483 -378 0
-733 -484 -379 0
-734 -485 -380 0
-735 -486 -381 0
-733 -487 -382 0
-734 -488 -383 0
-735 -489 -384 0
-733 -490 -385 0
-734 -491 -386 0
-735 -492 -387 0
-733 -493 -388 0
-734 -494 -389 0
-735 -495 -390 0
-733 -496 -391 0
-734 -497 -392 0
-735 -498 -393 0
-733 -499 -394 0
-734 -500 -395 0
-735 -501 -396 0
-733 -502 -397 0
-734 -503 -398 0
-735 -504 -399 0
-733 -505 -400 0
-734 -506 -401 0
-735 -507 -402 0
-733 -508 -403 0
-734 -509 -404 0
-735 -510 -405 0
-733 -511 -406 0
-734 -512 -407 0
-735 -513 -408 0
-733 -514 -409 0
-734 -515 -410 0
-735 -516 -411 0
-733 -517 -412 0
-734 -518 -413 0
-735 -519 -414 0
-733 -520 -415 0
-734 -521 -416 0
-735 -522 -417 0
-733 -523 -418 0
-734 -524 -419 0
-735 -525 -420 0
-733 -526 -421 0
-734 -527 -422 0
-735 -528 -423 0
-733 -529 -424 0
-734 -530 -425 0
-735 -531 -426 0
-733 -532 -427 0
-734 -533 -428 0
-735 -534 -429 0
-733 -535 -430 0
-734 -536 -431 0
-735 -537 -432 0
-733 -538 -433 0
-734 -539 -434 0
-735 -540 -435 0
-733 -541 -436 0
-734 -542 -437 0
-735 -543 -438 0
-733 -544 -439 0
-734 -545 -440 0
-735 -546 -441 0
-733 -547 -442 0
-734 -548 -443 0
-735 -549 -444 0
-733 -550 -445 0
-734 -551 -446 0
-735 -552 -447 0
-733 -553 -448 0
-734 -554 -449 0
-735 -555 -450 0
-733 -556 -451 0
-734 -557 -452 0
-735 -558 -453 0
-733 -559 -454 0
-734 -560 -455 0
-735 -561 -456 0
-733 -562 -457 0
-734 -563 -458 0
-735 -564 -459 0
-733 -565 -460 0
-734 -566 -461 0
-735 -567 -462 0
-733 -568 -463 0
-734 -569 -464 0
-735 -570 -465 0
-733 -571 -466 0
-734 -572 -467 0
-735 -573 -468 0
-733 -574 -469 0
-734 -575 -470 0
-735 -576 -471 0
-733 -577 -472 0
-734 -578 -473 0
-735 -579 -474 0
-733 -580 -475 0
-734 -581 -476 0
-735 -582 -477 0
-733 -583 -478 0
-734 -584 -479 0
-735 -585 -480 0
-733 -586 -481 0
-734 -587 -482 0
-735 -588 -483 0
-733 -589 -484 0
-734 -590 -485 0
-735 -591 -486 0
-733 -592 -487 0
-734 -593 -488 0
-735 -594 -489 0
-733 -595 -490 0
-734 -596 -491 0
-735 -597 -492 0
-733 -598 -493 0
-734 -599 -494 0
-735 -600 -495 0
-733 -601 -496 0
-734 -602 -497 0
-735 -603 -498 0
-733 -604 -499 0
-734 -605 -500 0
-735 -606 -501 0
-733 -607 -502 0
-734 -608 -503 0
-735 -609 -504 0
-733 -610 -505 0
-734 -611 -506 0
-735 -612 -507 0
-733 -613 -508 0
-734 -614 -509 0
-735 -615 -510 0
-733 -616 -511 0
-734 -617 -512 0
-735 -618 -513 0
-733 -619 -514 0
-734 -620 -515 0
-735 -621 -516 0
-733 -622 -517 0
-734 -623 -518 0
-735 -624 -519 0
-733 -625 -520 0
-734 -626 -521 0
-735 -627 -522 0
-733 -628 -523 0
-734 -629 -524 0
-735 -630 -525 0
-733 -631 -526 0
-734 -632 -527 0
-735 -633 -528 0
-733 -634 -529 0
-734 -635 -530 0
-735 -636 -531 0
-733 -637 -532 0
-734 -638 -533 0
-735 -639 -534 0
-733 -640 -535 0
-734 -641 -536 0
-735 -642 -537 0
-733 -643 -538 0
-734 -644 -539 0
-735 -645 -540 0
-733 -646 -541 0
-734 -647 -542 0
-735 -648 -543 0
-733 -649 -544 0
-734 -650 -545 0
-735 -651 -546 0
-733 -652 -547 0
-734 -653 -548 0
-735 -654 -549 0
-733 -655 -550 0
-734 -656 -551 0
-735 -657 -552 0
-733 -658 -553 0
-734 -659 -554 0
-735 -660 -555 0
-733 -661 -556 0
-734 -662 -557 0
-735 -663 -558 0
-733 -664 -559 0
-734 -665 -560 0
-735 -666 -561 0
-733 -667 -562 0
-734 -668 -563 0
-735 -669 -564 0
-733 -670 -565 0
-734 -671 -566 0
-735 -672 -567 0
-733 -673 -568 0
-734 -674 -569 0
-735 -675 -570 0
-733 -676 -571 0
-734 -677 -572 0
-735 -678 -573 0
-733 -679 -574 0
-734 -680 -575 0
-735 -681 -576 0
-733 -682 -577 0
-734 -683 -578 0
-735 -684 -579 0
-733 -685 -580 0
-734 -686 -581 0
-735 -687 -582 0
-733 -688 -583 0
-734 -689 -584 0
-735 -690 -585 0
-733 -691 -586 0
-734 -692 -587 0
-735 -693 -588 0
-733 -694 -589 0
-734 -695 -590 0
-735 -696 -591 0
-733 -697 -592 0
-734 -698 -593 0
-735 -699 -594 0
-733 -700 -595 0
-734 -701 -596 0
-735 -702 -597 0
-733 -703 -598 0
-734 -704 -599 0
-735 -705 -600 0
-733 -706 -601 0
-734 -707 -602 0
-735 -708 -603 0
-733 -709 -604 0
-734 -710 -605 0
-735 -711 -606 0
-733 -712 -607 0
-734 -713 -608 0
-735 -714 -609 0
-733 -715 -610 0
-734 -716 -611 0
-735 -717 -612 0
-733 -718 -613 0
-734 -719 -614 0
-735 -720 -615 0
-733 -721 -616 0
-734 -722 -617 0
-735 -723 -618 0
-733 -724 -619 0
-734 -725 -620 0
-735 -726 -621 0
-733 -727 -622 0
-734 -728 -623 0
-735 -729 -624 0
-733 -730 -625 0
-734 -731 -626 0
-735 -732 -627 0
-733 -628 0
-734 -629 0
-735 -630 0
-736 -733 -631 0
-737 -734 -632 0
-738 -735 -633 0
-739 -733 -634 0
-740 -734 -635 0
-741 -735 -636 0
-742 -733 -637 0
-743 -734 -638 0
-744 -735 -639 0
-745 -733 -640 0
-746 -734 -641 0
-747 -735 -642 0
-748 -733 -643 0
-749 -734 -644 0
-750 -735 -645 0
-751 -733 -646 0
-752 -734 -647 0
-753 -735 -648 0
-754 -733 -649 0
-755 -734 -650 0
-756 -735 -651 0
-757 -733 -652 0
-758 -734 -653 0
-759 -735 -654 0
-760 -733 -655 0
-761 -734 -656 0
-762 -735 -657 0
-763 -733 -658 0
-764 -734 -659 0
-765 -735 -660 0
-766 -733 -661 0
-767 -734 -662 0
-768 -735 -663 0
-769 -733 -664 0
-770 -734 -665 0
-771 -735 -666 0
-772 -733 -667 0
-773 -734 -668 0
-774 -735 -669 0
-775 -733 -670 0
-776 -734 -671 0
-777 -735 -672 0
-778 -733 -673 0
-779 -734 -674 0
-780 -735 -675 0
-781 -733 -676 0
-782 -734 -677 0
-783 -735 -678 0
-784 -733 -679 0
-785 -734 -680 0
-786 -735 -681 0
-787 -733 -682 0
-788 -734 -683 0
-789 -735 -684 0
-790 -733 -685 0
-791 -734 -686 0
-792 -735 -687 0
-793 -733 -688 0
-794 -734 -689 0
-795 -735 -690 0
-796 -733 -691 0
-797 -734 -692 0
-798 -735 -693 0
-799 -733 -694 0
-800 -734 -695 0
-801 -735 -696 0
-802 -733 -697 0
-803 -734 -698 0
-804 -735 -699 0
-805 -733 -700 0
-806 -734 -701 0
-807 -735 -702 0
-808 -733 -703 0
-809 -734 -704 0
-810 -735 -705 0
-811 -733 -706 0
-812 -734 -707 0
-813 -735 -708 0
-814 -733 -709 0
-815 -734 -710 0
-816 -735 -711 0
-817 -733 -712 0
-818 -734 -713 0
-819 -735 -714 0
-820 -733 -715 0
-821 -734 -716 0
-822 -735 -717 0
-823 -733 -718 0
-824 -734 -719 0
-825 -735 -720 0
-826 -733 -721 0
-827 -734 -722 0
-828 -735 -723 0
-829 -733 -724 0
-830 -734 -725 0
-831 -735 -726 0
-832 -733 -727 0
-833 -734 -728 0
-834 -735 -729 0
-835 -733 -730 0
-836 -734 -731 0
-837 -735 -732 0
-838 -733 0
-839 -734 0
-840 -735 0
-841 -736 -733 0
-842 -737 -734 0
-843 -738 -735 0
-844 -739 -733 0
-845 -740 -734 0
-846 -741 -735 0
-847 -742 -733 0
-848 -743 -734 0
-849 -744 -735 0
-850 -745 -733 0
-851 -746 -734 0
-852 -747 -735 0
-853 -748 -733 0
-854 -749 -734 0
-855 -750 -735 0
-856 -751 -733 0
-857 -752 -734 0
-858 -753 -735 0
-859 -754 -733 0
-860 -755 -734 0
-861 -756 -735 0
-862 -757 -733 0
-863 -758 -734 0
-864 -759 -735 0
-865 -760 -733 0
-866 -761 -734 0
-867 -762 -735 0
-868 -763 -733 0
-869 -764 -734 0
-870 -765 -735 0
-871 -766 -733 0
-872 -767 -734 0
-873 -768 -735 0
-874 -769 -733 0
-875 -770 -734 0
-876 -771 -735 0
-877 -772 -733 0
-878 -773 -734 0
-879 -774 -735 0
-880 -775 -733 0
-881 -776 -734 0
-882 -777 -735 0
-883 -778 -733 0
-884 -779 -734 0
-885 -780 -735 0
-886 -781 -733 0
-887 -782 -734 0
-888 -783 -735 0
-889 -784 -733 0
-890 -785 -734 0
-891 -786 -735 0
-892 -787 -733 0
-893 -788 -734 0
-894 -789 -735 0
-895 -790 -733 0
-896 -791 -734 0
-897 -792 -735 0
-898 -793 -733 0
-899 -794 -734 0
-900 -795 -735 0
-901 -796 -733 0
-902 -797 -734 0
-903 -798 -735 0
-904 -799 -733 0
-905 -800 -734 0
-906 -801 -735 0
-907 -802 -733 0
-908 -803 -734 0
-909 -804 -735 0
-910 -805 -733 0
-911 -806 -734 0
-912 -807 -735 0
-913 -808 -733 0
-914 -809 -734 0
-915 -810 -735 0
-916 -811 -733 0
-917 -812 -734 0
-918 -813 -735 0
-919 -814 -733 0
-920 -815 -734 0
-921 -816 -735 0
-922 -817 -733 0
-923 -818 -734 0
-924 -819 -735 0
-925 -820 -733 0
-926 -821 -734 0
-927 -822 -735 0
-928 -823 -733 0
-929 -824 -734 0
-930 -825 -735 0
-931 -826 -733 0
-932 -827 -734 0
-933 -828 -735 0
-934 -829 -733 0
-935 -830 -734 0
-936 -831 -735 0
-937 -832 -733 0
-938 -833 -734 0
-939 -834 -735 0
-940 -835 -733 0
-941 -836 -734 0
-942 -837 -735 0
-943 -838 -733 0
-944 -839 -734 0
-945 -840 -735 0
-946 -841 -733 0
-947 -842 -734 0
-948 -843 -735 0
-949 -844 -733 0
-950 -845 -734 0
-951 -846 -735 0
-952 -847 -733 0
-953 -848 -734 0
-954 -849 -735 0
-955 -850 -733 0
-956 -851 -734 0
-957 -852 -735 0
-958 -853 -733 0
-959 -854 -734 0
-960 -855 -735 0
-961 -856 -733 0
-962 -857 -734 0
-963 -858 -735 0
-964 -859 -733 0
-965 -860 -734 0
-966 -861 -735 0
-967 -862 -733 0
-968 -863 -734 0
-969 -864 -735 0
-970 -865 -733 0
-971 -866 -734 0
-972 -867 -735 0
-973 -868 -733 0
-974 -869 -734 0
-975 -870 -735 0
-976 -871 -733 0
-977 -872 -734 0
-978 -873 -735 0
-979 -874 -733 0
-980 -875 -734 0
-981 -876 -735 0
-982 -877 -733 0
-983 -878 -734 0
-984 -879 -735 0
-985 -880 -733 0
-986 -881 -734 0
-987 -882 -735 0
-988 -883 -733 0
-989 -884 -734 0
-990 -885 -735 0
-991 -886 -733 0
-992 -887 -734 0
-993 -888 -735 0
-994 -889 -733 0
-995 -890 -734 0
-996 -891 -735 0
-997 -892 -733 0
-998 -893 -734 0
-999 -894 -735 0
-1000 -895 -733 0
-1001 -896 -734 0
-1002 -897 -735 0
-1003 -898 -733 0
-1004 -899 -734 0
-1005 -900 -735 0
-1006 -901 -733 0
-1007 -902 -734 0
-1008 -903 -735 0
-1009 -904 -733 0
-1010 -905 -734 0
-1011 -906 -735 0
-1012 -907 -733 0
-1013 -908 -734 0
-1014 -909 -735 0
-1015 -910 -733 0
-1016 -911 -734 0
-1017 -912 -735 0
-1018 -913 -733 0
-1019 -914 -734 0
-1020 -915 -735 0
-1021 -916 -733 0
-1022 -917 -734 0
-1023 -918 -735 0
-1024 -919 -733 0
-1025 -920 -734 0
-1026 -921 -735 0
-1027 -922 -733 0
-1028 -923 -734 0
-1029 -924 -735 0
-754 -109 -1 0
-755 -110 -2 0
-756 -111 -3 0
-754 -112 -4 0
-755 -113 -5 0
-756 -114 -6 0
-754 -115 -7 0
-755 -116 -8 0
-756 -117 -9 0
-754 -118 -10 0
-755 -119 -11 0
-756 -120 -12 0
-754 -121 -13 0
-755 -122 -14 0
-756 -123 -15 0
-754 -124 -16 0
-755 -125 -17 0
-756 -126 -18 0
-754 -127 -19 0
-755 -128 -20 0
-756 -129 -21 0
-754 -130 -22 0
-755 -131 -23 0
-756 -132 -24 0
-754 -133 -25 0
-755 -134 -26 0
-756 -135 -27 0
-754 -136 -28 0
-755 -137 -29 0
-756 -138 -30 0
-754 -139 -31 0
-755 -140 -32 0
-756 -141 -33 0
-754 -142 -34 0
-755 -143 -35 0
-756 -144 -36 0
-754 -145 -37 0
-755 -146 -38 0
-756 -147 -39 0
-754 -148 -40 0
-755 -149 -41 0
-756 -150 -42 0
-754 -151 -43 0
-755 -152 -44 0
-756 -153 -45 0
-754 -154 -46 0
-755 -155 -47 0
-756 -156 -48 0
-754 -157 -49 0
-755 -158 -50 0
-756 -159 -51 0
-754 -160 -52 0
-755 -161 -53 0
-756 -162 -54 0
-754 -163 -55 0
-755 -164 -56 0
-756 -165 -57 0
-754 -166 -58 0
-755 -167 -59 0
-756 -168 -60 0
-754 -169 -61 0
-755 -170 -62 0
-756 -171 -63 0
-754 -172 -64 0
-755 -173 -65 0
-756 -174 -66 0
-754 -175 -67 0
-755 -176 -68 0
-756 -177 -69 0
-754 -178 -70 0
-755 -179 -71 0
-756 -180 -72 0
-754 -181 -73 0
-755 -182 -74 0
-756 -183 -75 0
-754 -184 -76 0
-755 -185 -77 0
-756 -186 -78 0
-754 -187 -79 0
-755 -188 -80 0
-756 -189 -81 0
-754 -190 -82 0
-755 -191 -83 0
-756 -192 -84 0
-754 -193 -85 0
-755 -194 -86 0
-756 -195 -87 0
-754 -196 -88 0
-755 -197 -89 0
-756 -198 -90 0
-754 -199 -91 0
-755 -200 -92 0
-756 -201 -93 0
-754 -202 -94 0
-755 -203 -95 0
-756 -204 -96 0
-754 -205 -97 0
-755 -206 -98 0
-756 -207 -99 0
-754 -208 -100 0
-755 -209 -101 0
-756 -210 -102 0
-754 -211 -103 0
-755 -212 -104 0
-756 -213 -105 0
-754 -214 -106 0
-755 -215 -107 0
-756 -216 -108 0
-754 -217 -109 0
-755 -218 -110 0
-756 -219 -111 0
-754 -220 -112 0
-755 -221 -113 0
-756 -222 -114 0
-754 -223 -115 0
-755 -224 -116 0
-756 -225 -117 0
-754 -226 -118 0
-755 -227 -119 0
-756 -228 -120 0
-754 -229 -121 0
-755 -230 -122 0
-756 -231 -123 0
-754 -232 -124 0
-755 -233 -125 0
-756 -234 -126 0
-754 -235 -127 0
-755 -236 -128 0
-756 -237 -129 0
-754 -238 -130 0
-755 -239 -131 0
-756 -240 -132 0
-754 -241 -133 0
-755 -242 -134 0
-756 -243 -135 0
-754 -244 -136 0
-755 -245 -137 0
-756 -246 -138 0
-754 -247 -139 0
-755 -248 -140 0
-756 -249 -141 0
-754 -250 -142 0
-755 -251 -143 0
-756 -252 -144 0
-754 -253 -145 0
-755 -254 -146 0
-756 -255 -147 0
-754 -256 -148 0
-755 -257 -149 0
-756 -258 -150 0
-754 -259 -151 0
-755 -260 -152 0
-756 -261 -153 0
-754 -262 -154 0
-755 -263 -155 0
-756 -264 -156 0
-754 -265 -157 0
-755 -266 -158 0
-756 -267 -159 0
-754 -268 -160 0
-755 -269 -161 0
-756 -270 -162 0
-754 -271 -163 0
-755 -272 -164 0
-756 -273 -165 0
-754 -274 -166 0
-755 -275 -167 0
-756 -276 -168 0
-754 -277 -169 0
-755 -278 -170 0
-756 -279 -171 0
-754 -280 -172 0
-755 -281 -173 0
-756 -282 -174 0
-754 -283 -175 0
-755 -284 -176 0
-756 -285 -177 0
-754 -286 -178 0
-755 -287 -179 0
-756 -288 -180 0
-754 -289 -181 0
-755 -290 -182 0
-756 -291 -183 0
-754 -292 -184 0
-755 -293 -185 0
-756 -294 -186 0
-754 -295 -187 0
-755 -296 -188 0
-756 -297 -189 0
-754 -298 -190 0
-755 -299 -191 0
-756 -300 -192 0
-754 -301 -193 0
-755 -302 -194 0
-756 -303 -195 0
-754 -304 -196 0
-755 -305 -197 0
-756 -306 -198 0
-754 -307 -199 0
-755 -308 -200 0
-756 -309 -201 0
-754 -310 -202 0
-755 -311 -203 0
-756 -312 -204 0
-754 -313 -205 0
-755 -314 -206 0
-756 -315 -207 0
-754 -316 -208 0
-755 -317 -209 0
-756 -318 -210 0
-754 -319 -211 0
-755 -320 -212 0
-756 -321 -213 0
-754 -322 -214 0
-755 -323 -215 0
-756 -324 -216 0
-754 -325 -217 0
-755 -326 -218 0
-756 -327 -219 0
-754 -328 -220 0
-755 -329 -221 0
-756 -330 -222 0
-754 -331 -223 0
-755 -332 -224 0
-756 -333 -225 0
-754 -334 -226 0
-755 -335 -227 0
-756 -336 -228 0
-754 -337 -229 0
-755 -338 -230 0
-756 -339 -231 0
-754 -340 -232 0
-755 -341 -233 0
-756 -342 -234 0
-754 -343 -235 0
-755 -344 -236 0
-756 -345 -237 0
-754 -346 -238 0
-755 -347 -239 0
-756 -348 -240 0
-754 -349 -241 0
-755 -350 -242 0
-756 -351 -243 0
-754 -352 -244 0
-755 -353 -245 0
-756 -354 -246 0
-754 -355 -247 0
-755 -356 -248 0
-756 -357 -249 0
-754 -358 -250 0
-755 -359 -251 0
-756 -360 -252 0
-754 -361 -253 0
-755 -362 -254 0
-756 -363 -255 0
-754 -364 -256 0
-755 -365 -257 0
-756 -366 -258 0
-754 -367 -259 0
-755 -368 -260 0
-756 -369 -261 0
-754 -370 -262 0
-755 -371 -263 0
-756 -372 -264 0
-754 -373 -265 0
-755 -374 -266 0
-756 -375 -267 0
-754 -376 -268 0
-755 -377 -269 0
-756 -378 -270 0
-754 -379 -271 0
-755 -380 -272 0
-756 -381 -273 0
-754 -382 -274 0
-755 -383 -275 0
-756 -384 -276 0
-754 -385 -277 0
-755 -386 -278 0
-756 -387 -279 0
-754 -388 -280 0
-755 -389 -281 0
-756 -390 -282 0
-754 -391 -283 0
-755 -392 -284 0
-756 -393 -285 0
-754 -394 -286 0
-755 -395 -287 0
-756 -396 -288 0
-754 -397 -289 0
-755 -398 -290 0
-756 -399 -291 0
-754 -400 -292 0
-755 -401 -293 0
-756 -402 -294 0
-754 -403 -295 0
-755 -404 -296 0
-756 -405 -297 0
-754 -406 -298 0
-755 -407 -299 0
-756 -408 -300 0
-754 -409 -301 0
-755 -410 -302 0
-756 -411 -303 0
-754 -412 -304 0
-755 -413 -305 0
-756 -414 -306 0
-754 -415 -307 0
-755 -416 -308 0
-756 -417 -309 0
-754 -418 -310 0
-755 -419 -311 0
-756 -420 -312 0
-754 -421 -313 0
-755 -422 -314 0
-756 -423 -315 0
-754 -424 -316 0
-755 -425 -317 0
-756 -426 -318 0
-754 -427 -319 0
-755 -428 -320 0
-756 -429 -321 0
-754 -430 -322 0
-755 -431 -323 0
-756 -432 -324 0
-754 -433 -325 0
-755 -434 -326 0
-756 -435 -327 0
-754 -436 -328 0
-755 -437 -329 0
-756 -438 -330 0
-754 -439 -331 0
-755 -440 -332 0
-756 -441 -333 0
-754 -442 -334 0
-755 -443 -335 0
-756 -444 -336 0
-754 -445 -337 0
-755 -446 -338 0
-756 -447 -339 0
-754 -448 -340 0
-755 -449 -341 0
-756 -450 -342 0
-754 -451 -343 0
-755 -452 -344 0
-756 -453 -345 0
-754 -454 -346 0
-755 -455 -347 0
-756 -456 -348 0
-754 -457 -349 0
-755 -458 -350 0
-756 -459 -351 0
-754 -460 -352 0
-755 -461 -353 0
-756 -462 -354 0
-754 -463 -355 0
-755 -464 -356 0
-756 -465 -357 0
-754 -466 -358 0
-755 -467 -359 0
-756 -468 -360 0
-754 -469 -361 0
-755 -470 -362 0
-756 -471 -363 0
-754 -472 -364 0
-755 -473 -365 0
-756 -474 -366 0
-754 -475 -367 0
-755 -476 -368 0
-756 -477 -369 0
-754 -478 -370 0
-755 -479 -371 0
-756 -480 -372 0
-754 -481 -373 0
-755 -482 -374 0
-756 -483 -375 0
-754 -484 -376 0
-755 -485 -377 0
-756 -486 -378 0
-754 -487 -379 0
-755 -488 -380 0
-756 -489 -381 0
-754 -490 -382 0
-755 -491 -383 0
-756 -492 -384 0
-754 -493 -385 0
-755 -494 -386 0
-756 -495 -387 0
-754 -496 -388 0
-755 -497 -389 0
-756 -498 -390 0
-754 -499 -391 0
-755 -500 -392 0
-756 -501 -393 0
-754 -502 -394 0
-755 -503 -395 0
-756 -504 -396 0
-754 -505 -397 0
-755 -506 -398 0
-756 -507 -399 0
-754 -508 -400 0
-755 -509 -401 0
-756 -510 -402 0
-754 -511 -403 0
-755 -512 -404 0
-756 -513 -405 0
-754 -514 -406 0
-755 -515 -407 0
-756 -516 -408 0
-754 -517 -409 0
-755 -518 -410 0
-756 -519 -411 0
-754 -520 -412 0
-755 -521 -413 0
-756 -522 -414 0
-754 -523 -415 0
-755 -524 -416 0
-756 -525 -417 0
-754 -526 -418 0
-755 -527 -419 0
-756 -528 -420 0
-754 -529 -421 0
-755 -530 -422 0
-756 -531 -423 0
-754 -532 -424 0
-755 -533 -425 0
-756 -534 -426 0
-754 -535 -427 0
-755 -536 -428 0
-756 -537 -429 0
-754 -538 -430 0
-755 -539 -431 0
-756 -540 -432 0
-754 -541 -433 0
-755 -542 -434 0
-756 -543 -435 0
-754 -544 -436 0
-755 -545 -437 0
-756 -546 -438 0
-754 -547 -439 0
-755 -548 -440 0
-756 -549 -441 0
-754 -550 -442 0
-755 -551 -443 0
-756 -552 -444 0
-754 -553 -445 0
-755 -554 -446 0
-756 -555 -447 0
-754 -556 -448 0
-755 -557 -449 0
-756 -558 -450 0
-754 -559 -451 0
-755 -560 -452 0
-756 -561 -453 0
-754 -562 -454 0
-755 -563 -455 0
-756 -564 -456 0
-754 -565 -457 0
-755 -566 -458 0
-756 -567 -459 0
-754 -568 -460 0
-755 -569 -461 0
-756 -570 -462 0
-754 -571 -463 0
-755 -572 -464 0
-756 -573 -465 0
-754 -574 -466 0
-755 -575 -467 0
-756 -576 -468 0
-754 -577 -469 0
-755 -578 -470 0
-756 -579 -471 0
-754 -580 -472 0
-755 -581 -473 0
-756 -582 -474 0
-754 -583 -475 0
-755 -584 -476 0
-756 -585 -477 0
-754 -586 -478 0
-755 -587 -479 0
-756 -588 -480 0
-754 -589 -481 0
-755 -590 -482 0
-756 -591 -483 0
-754 -592 -484 0
-755 -593 -485 0
-756 -594 -486 0
-754 -595 -487 0
-755 -596 -488 0
-756 -597 -489 0
-754 -598 -490 0
-755 -599 -491 0
-756 -600 -492 0
-754 -601 -493 0
-755 -602 -494 0
-756 -603 -495 0
-754 -604 -496 0
-755 -605 -497 0
-756 -606 -498 0
-754 -607 -499 0
-755 -608 -500 0
-756 -609 -501 0
-754 -610 -502 0
-755 -611 -503 0
-756 -612 -504 0
-754 -613 -505 0
-755 -614 -506 0
-756 -615 -507 0
-754 -616 -508 0
-755 -617 -509 0
-756 -618 -510 0
-754 -619 -511 0
-755 -620 -512 0
-756 -621 -513 0
-754 -622 -514 0
-755 -623 -515 0
-756 -624 -516 0
-754 -625 -517 0
-755 -626 -518 0
-756 -627 -519 0
-754 -628 -520 0
-755 -629 -521 0
-756 -630 -522 0
-754 -631 -523 0
-755 -632 -524 0
-756 -633 -525 0
-754 -634 -526 0
-755 -635 -527 0
-756 -636 -528 0
-754 -637 -529 0
-755 -638 -530 0
-756 -639 -531 0
-754 -640 -532 0
-755 -641 -533 0
-756 -642 -534 0
-754 -643 -535 0
-755 -644 -536 0
-756 -645 -537 0
-754 -646 -538 0
-755 -647 -539 0
-756 -648 -540 0
-754 -649 -541 0
-755 -650 -542 0
-756 -651 -543 0
-754 -652 -544 0
-755 -653 -545 0
-756 -654 -546 0
-754 -655 -547 0
-755 -656 -548 0
-756 -657 -549 0
-754 -658 -550 0
-755 -659 -551 0
-756 -660 -552 0
-754 -661 -553 0
-755 -662 -554 0
-756 -663 -555 0
-754 -664 -556 0
-755 -665 -557 0
-756 -666 -558 0
-754 -667 -559 0
-755 -668 -560 0
-756 -669 -561 0
-754 -670 -562 0
-755 -671 -563 0
-756 -672 -564 0
-754 -673 -565 0
-755 -674 -566 0
-756 -675 -567 0
-754 -676 -568 0
-755 -677 -569 0
-756 -678 -570 0
-754 -679 -571 0
-755 -680 -572 0
-756 -681 -573 0
-754 -682 -574 0
-755 -683 -575 0
-756 -684 -576 0
-754 -685 -577 0
-755 -686 -578 0
-756 -687 -579 0
-754 -688 -580 0
-755 -689 -581 0
-756 -690 -582 0
-754 -691 -583 0
-755 -692 -584 0
-756 -693 -585 0
-754 -694 -586 0
-755 -695 -587 0
-756 -696 -588 0
-754 -697 -589 0
-755 -698 -590 0
-756 -699 -591 0
-754 -700 -592 0
-755 -701 -593 0
-756 -702 -594 0
-754 -703 -595 0
-755 -704 -596 0
-756 -705 -597 0
-754 -706 -598 0
-755 -707 -599 0
-756 -708 -600 0
-754 -709 -601 0
-755 -710 -602 0
-756 -711 -603 0
-754 -712 -604 0
-755 -713 -605 0
-756 -714 -606 0
-754 -715 -607 0
-755 -716 -608 0
-756 -717 -609 0
-754 -718 -610 0
-755 -719 -611 0
-756 -720 -612 0
-754 -721 -613 0
-755 -722 -614 0
-756 -723 -615 0
-754 -724 -616 0
-755 -725 -617 0
-756 -726 -618 0
-754 -727 -619 0
-755 -728 -620 0
-756 -729 -621 0
-754 -730 -622 0
-755 -731 -623 0
-756 -732 -624 0
-754 -733 -625 0
-755 -734 -626 0
-756 -735 -627 0
-754 -736 -628 0
-755 -737 -629 0
-756 -738 -630 0
-754 -739 -631 0
-755 -740 -632 0
-756 -741 -633 0
-754 -742 -634 0
-755 -743 -635 0
-756 -744 -636 0
-754 -745 -637 0
-755 -746 -638 0
-756 -747 -639 0
-754 -748 -640 0
-755 -749 -641 0
-756 -750 -642 0
-754 -751 -643 0
-755 -752 -644 0
-756 -753 -645 0
-754 -646 0
-755 -647 0
-756 -648 0
-757 -754 -649 0
-758 -755 -650 0
-759 -756 -651 0
-760 -754 -652 0
-761 -755 -653 0
-762 -756 -654 0
-763 -754 -655 0
-764 -755 -656 0
-765 -756 -657 0
-766 -754 -658 0
-767 -755 -659 0
-768 -756 -660 0
-769 -754 -661 0
-770 -755 -662 0
-771 -756 -663 0
-772 -754 -664 0
-773 -755 -665 0
-774 -756 -666 0
-775 -754 -667 0
-776 -755 -668 0
-777 -756 -669 0
-778 -754 -670 0
-779 -755 -671 0
-780 -756 -672 0
-781 -754 -673 0
-782 -755 -674 0
-783 -756 -675 0
-784 -754 -676 0
-785 -755 -677 0
-786 -756 -678 0
-787 -754 -679 0
-788 -755 -680 0
-789 -756 -681 0
-790 -754 -682 0
-791 -755 -683 0
-792 -756 -684 0
-793 -754 -685 0
-794 -755 -686 0
-795 -756 -687 0
-796 -754 -688 0
-797 -755 -689 0
-798 -756 -690 0
-799 -754 -691 0
-800 -755 -692 0
-801 -756 -693 0
-802 -754 -694 0
-803 -755 -695 0
-804 -756 -696 0
-805 -754 -697 0
-806 -755 -698 0
-807 -756 -699 0
-808 -754 -700 0
-809 -755 -701 0
-810 -756 -702 0
-811 -754 -703 0
-812 -755 -704 0
-813 -756 -705 0
-814 -754 -706 0
-815 -755 -707 0
-816 -756 -708 0
-817 -754 -709 0
-818 -755 -710 0
-819 -756 -711 0
-820 -754 -712 0
-821 -755 -713 0
-822 -756 -714 0
-823 -754 -715 0
-824 -755 -716 0
-825 -756 -717 0
-826 -754 -718 0
-827 -755 -719 0
-828 -756 -720 0
-829 -754 -721 0
-830 -755 -722 0
-831 -756 -723 0
-832 -754 -724 0
-833 -755 -725 0
-834 -756 -726 0
-835 -754 -727 0
-836 -755 -728 0
-837 -756 -729 0
-838 -754 -730 0
-839 -755 -731 0
-840 -756 -732 0
-841 -754 -733 0
-842 -755 -734 0
-843 -756 -735 0
-844 -754 -736 0
-845 -755 -737 0
-846 -756 -738 0
-847 -754 -739 0
-848 -755 -740 0
-849 -756 -741 0
-850 -754 -742 0
-851 -755 -743 0
-852 -756 -744 0
-853 -754 -745 0
-854 -755 -746 0
-855 -756 -747 0
-856 -754 -748 0
-857 -755 -749 0
-858 -756 -750 0
-859 -754 -751 0
-860 -755 -752 0
-861 -756 -753 0
-862 -754 0
-863 -755 0
-864 -756 0
-865 -757 -754 0
-866 -758 -755 0
-867 -759 -756 0
-868 -760 -754 0
-869 -761 -755 0
-870 -762 -756 0
-871 -763 -754 0
-872 -764 -755 0
-873 -765 -756 0
-874 -766 -754 0
-875 -767 -755 0
-876 -768 -756 0
-877 -769 -754 0
-878 -770 -755 0
-879 -771 -756 0
-880 -772 -754 0
-881 -773 -755 0
-882 -774 -756 0
-883 -775 -754 0
-884 -776 -755 0
-885 -777 -756 0
-886 -778 -754 0
-887 -779 -755 0
-888 -780 -756 0
-889 -781 -754 0
-890 -782 -755 0
-891 -783 -756 0
-892 -784 -754 0
-893 -785 -755 0
-894 -786 -756 0
-895 -787 -754 0
-896 -788 -755 0
-897 -789 -756 0
-898 -790 -754 0
-899 -791 -755 0
-900 -792 -756 0
-901 -793 -754 0
-902 -794 -755 0
-903 -795 -756 0
-904 -796 -754 0
-905 -797 -755 0
-906 -798 -756 0
-907 -799 -754 0
-908 -800 -755 0
-909 -801 -756 0
-910 -802 -754 0
-911 -803 -755 0
-912 -804 -756 0
-913 -805 -754 0
-914 -806 -755 0
-915 -807 -756 0
-916 -808 -754 0
-917 -809 -755 0
-918 -810 -756 0
-919 -811 -754 0
-920 -812 -755 0
-921 -813 -756 0
-922 -814 -754 0
-923 -815 -755 0
-924 -816 -756 0
-925 -817 -754 0
-926 -818 -755 0
-927 -819 -756 0
-928 -820 -754 0
-929 -821 -755 0
-930 -822 -756 0
-931 -823 -754 0
-932 -824 -755 0
-933 -825 -756 0
-934 -826 -754 0
-935 -827 -755 0
-936 -828 -756 0
-937 -829 -754 0
-938 -830 -755 0
-939 -831 -756 0
-940 -832 -754 0
-941 -833 -755 0
-942 -834 -756 0
-943 -835 -754 0
-944 -836 -755 0
-945 -837 -756 0
-946 -838 -754 0
-947 -839 -755 0
-948 -840 -756 0
-949 -841 -754 0
-950 -842 -755 0
-951 -843 -756 0
-952 -844 -754 0
-953 -845 -755 0
-954 -846 -756 0
-955 -847 -754 0
-956 -848 -755 0
-957 -849 -756 0
-958 -850 -754 0
-959 -851 -755 0
-960 -852 -756 0
-961 -853 -754 0
-962 -854 -755 0
-963 -855 -756 0
-964 -856 -754 0
-965 -857 -755 0
-966 -858 -756 0
-967 -859 -754 0
-968 -860 -755 0
-969 -861 -756 0
-970 -862 -754 0
-971 -863 -755 0
-972 -864 -756 0
-973 -865 -754 0
-974 -866 -755 0
-975 -867 -756 0
-976 -868 -754 0
-977 -869 -755 0
-978 -870 -756 0
-979 -871 -754 0
-980 -872 -755 0
-981 -873 -756 0
-982 -874 -754 0
-983 -875 -755 0
-984 -876 -756 0
-985 -877 -754 0
-986 -878 -755 0
-987 -879 -756 0
-988 -880 -754 0
-989 -881 -755 0
-990 -882 -756 0
-991 -883 -754 0
-992 -884 -755 0
-993 -885 -756 0
-994 -886 -754 0
-995 -887 -755 0
-996 -888 -756 0
-997 -889 -754 0
-998 -890 -755 0
-999 -891 -756 0
-1000 -892 -754 0
-1001 -893 -755 0
-1002 -894 -756 0
-1003 -895 -754 0
-1004 -896 -755 0
-1005 -897 -756 0
-1006 -898 -754 0
-1007 -899 -755 0
-1008 -900 -756 0
-1009 -901 -754 0
-1010 -902 -755 0
-1011 -903 -756 0
-1012 -904 -754 0
-1013 -905 -755 0
-1014 -906 -756 0
-1015 -907 -754 0
-1016 -908 -755 0
-1017 -909 -756 0
-1018 -910 -754 0
-1019 -911 -755 0
-1020 -912 -756 0
-1021 -913 -754 0
-1022 -914 -755 0
-1023 -915 -756 0
-1024 -916 -754 0
-1025 -917 -755 0
-1026 -918 -756 0
-1027 -919 -754 0
-1028 -920 -755 0
-1029 -921 -756 0
-775 -112 -1 0
-776 -113 -2 0
-777 -114 -3 0
-775 -115 -4 0
-776 -116 -5 0
-777 -117 -6 0
-775 -118 -7 0
-776 -119 -8 0
-777 -120 -9 0
-775 -121 -10 0
-776 -122 -11 0
-777 -123 -12 0
-775 -124 -13 0
-776 -125 -14 0
-777 -126 -15 0
-775 -127 -16 0
-776 -128 -17 0
-777 -129 -18 0
-775 -130 -19 0
-776 -131 -20 0
-777 -132 -21 0
-775 -133 -22 0
-776 -134 -23 0
-777 -135 -24 0
-775 -136 -25 0
-776 -137 -26 0
-777 -138 -27 0
-775 -139 -28 0
-776 -140 -29 0
-777 -141 -30 0
-775 -142 -31 0
-776 -143 -32 0
-777 -144 -33 0
-775 -145 -34 0
-776 -146 -35 0
-777 -147 -36 0
-775 -148 -37 0
-776 -149 -38 0
-777 -150 -39 0
-775 -151 -40 0
-776 -152 -41 0
-777 -153 -42 0
-775 -154 -43 0
-776 -155 -44 0
-777 -156 -45 0
-775 -157 -46 0
-776 -158 -47 0
-777 -159 -48 0
-775 -160 -49 0
-776 -161 -50 0
-777 -162 -51 0
-775 -163 -52 0
-776 -164 -53 0
-777 -165 -54 0
-775 -166 -55 0
-776 -167 -56 0
-777 -168 -57 0
-775 -169 -58 0
-776 -170 -59 0
-777 -171 -60 0
-775 -172 -61 0
-776 -173 -62 0
-777 -174 -63 0
-775 -175 -64 0
-776 -176 -65 0
-777 -177 -66 0
-775 -178 -67 0
-776 -179 -68 0
-777 -180 -69 0
-775 -181 -70 0
-776 -182 -71 0
-777 -183 -72 0
-775 -184 -73 0
-776 -185 -74 0
-777 -186 -75 0
-775 -187 -76 0
-776 -188 -77 0
-777 -189 -78 0
-775 -190 -79 0
-776 -191 -80 0
-777 -192 -81 0
-775 -193 -82 0
-776 -194 -83 0
-777 -195 -84 0
-775 -196 -85 0
-776 -197 -86 0
-777 -198 -87 0
-775 -199 -88 0
-776 -200 -89 0
-777 -201 -90 0
-775 -202 -91 0
-776 -203 -92 0
-777 -204 -93 0
-775 -205 -94 0
-776 -206 -95 0
-777 -207 -96 0
-775 -208 -97 0
-776 -209 -98 0
-777 -210 -99 0
-775 -211 -100 0
-776 -212 -101 0
-777 -213 -102 0
-775 -214 -103 0
-776 -215 -104 0
-777 -216 -105 0
-775 -217 -106 0
-776 -218 -107 0
-777 -219 -108 0
-775 -220 -109 0
-776 -221 -110 0
-777 -222 -111 0
-775 -223 -112 0
-776 -224 -113 0
-777 -225 -114 0
-775 -226 -115 0
-776 -227 -116 0
-777 -228 -117 0
-775 -229 -118 0
-776 -230 -119 0
-777 -231 -120 0
-775 -232 -121 0
-776 -233 -122 0
-777 -234 -123 0
-775 -235 -124 0
-776 -236 -125 0
-777 -237 -126 0
-775 -238 -127 0
-776 -239 -128 0
-777 -240 -129 0
-775 -241 -130 0
-776 -242 -131 0
-777 -243 -132 0
-775 -244 -133 0
-776 -245 -134 0
-777 -246 -135 0
-775 -247 -136 0
-776 -248 -137 0
-777 -249 -138 0
-775 -250 -139 0
-776 -251 -140 0
-777 -252 -141 0
-775 -253 -142 0
-776 -254 -143 0
-777 -255 -144 0
-775 -256 -145 0
-776 -257 -146 0
-777 -258 -147 0
-775 -259 -148 0
-776 -260 -149 0
-777 -261 -150 0
-775 -262 -151 0
-776 -263 -152 0
-777 -264 -153 0
-775 -265 -154 0
-776 -266 -155 0
-777 -267 -156 0
-775 -268 -157 0
-776 -269 -158 0
-777 -270 -159 0
-775 -271 -160 0
-776 -272 -161 0
-777 -273 -162 0
-775 -274 -163 0
-776 -275 -164 0
-777 -276 -165 0
-775 -277 -166 0
-776 -278 -167 0
-777 -279 -168 0
-775 -280 -169 0
-776 -281 -170 0
-777 -282 -171 0
-775 -283 -172 0
-776 -284 -173 0
-777 -285 -174 0
-775 -286 -175 0
-776 -287 -176 0
-777 -288 -177 0
-775 -289 -178 0
-776 -290 -179 0
-777 -291 -180 0
-775 -292 -181 0
-776 -293 -182 0
-777 -294 -183 0
-775 -295 -184 0
-776 -296 -185 0
-777 -297 -186 0
-775 -298 -187 0
-776 -299 -188 0
-777 -300 -189 0
-775 -301 -190 0
-776 -302 -191 0
-777 -303 -192 0
-775 -304 -193 0
-776 -305 -194 0
-777 -306 -195 0
-775 -307 -196 0
-776 -308 -197 0
-777 -309 -198 0
-775 -310 -199 0
-776 -311 -200 0
-777 -312 -201 0
-775 -313 -202 0
-776 -314 -203 0
-777 -315 -204 0
-775 -316 -205 0
-776 -317 -206 0
-777 -318 -207 0
-775 -319 -208 0
-776 -320 -209 0
-777 -321 -210 0
-775 -322 -211 0
-776 -323 -212 0
-777 -324 -213 0
-775 -325 -214 0
-776 -326 -215 0
-777 -327 -216 0
-775 -328 -217 0
-776 -329 -218 0
-777 -330 -219 0
-775 -331 -220 0
-776 -332 -221 0
-777 -333 -222 0
-775 -334 -223 0
-776 -335 -224 0
-777 -336 -225 0
-775 -337 -226 0
-776 -338 -227 0
-777 -339 -228 0
-775 -340 -229 0
-776 -341 -230 0
-777 -342 -231 0
-775 -343 -232 0
-776 -344 -233 0
-777 -345 -234 0
-775 -346 -235 0
-776 -347 -236 0
-777 -348 -237 0
-775 -349 -238 0
-776 -350 -239 0
-777 -351 -240 0
-775 -352 -241 0
-776 -353 -242 0
-777 -354 -243 0
-775 -355 -244 0
-776 -356 -245 0
-777 -357 -246 0
-775 -358 -247 0
-776 -359 -248 0
-777 -360 -249 0
-775 -361 -250 0
-776 -362 -251 0
-777 -363 -252 0
-775 -364 -253 0
-776 -365 -254 0
-777 -366 -255 0
-775 -367 -256 0
-776 -368 -257 0
-777 -369 -258 0
-775 -370 -259 0
-776 -371 -260 0
-777 -372 -261 0
-775 -373 -262 0
-776 -374 -263 0
-777 -375 -264 0
-775 -376 -265 0
-776 -377 -266 0
-777 -378 -267 0
-775 -379 -268 0
-776 -380 -269 0
-777 -381 -270 0
-775 -382 -271 0
-776 -383 -272 0
-777 -384 -273 0
-775 -385 -274 0
-776 -386 -275 0
-777 -387 -276 0
-775 -388 -277 0
-776 -389 -278 0
-777 -390 -279 0
-775 -391 -280 0
-776 -392 -281 0
-777 -393 -282 0
-775 -394 -283 0
-776 -395 -284 0
-777 -396 -285 0
-775 -397 -286 0
-776 -398 -287 0
-777 -399 -288 0
-775 -400 -289 0
-776 -401 -290 0
-777 -402 -291 0
-775 -403 -292 0
-776 -404 -293 0
-777 -405 -294 0
-775 -406 -295 0
-776 -407 -296 0
-777 -408 -297 0
-775 -409 -298 0
-776 -410 -299 0
-777 -411 -300 0
-775 -412 -301 0
-776 -413 -302 0
-777 -414 -303 0
-775 -415 -304 0
-776 -416 -305 0
-777 -417 -306 0
-775 -418 -307 0
-776 -419 -308 0
-777 -420 -309 0
-775 -421 -310 0
-776 -422 -311 0
-777 -423 -312 0
-775 -424 -313 0
-776 -425 -314 0
-777 -426 -315 0
-775 -427 -316 0
-776 -428 -317 0
-777 -429 -318 0
-775 -430 -319 0
-776 -431 -320 0
-777 -432 -321 0
-775 -433 -322 0
-776 -434 -323 0
-777 -435 -324 0
-775 -436 -325 0
-776 -437 -326 0
-777 -438 -327 0
-775 -439 -328 0
-776 -440 -329 0
-777 -441 -330 0
-775 -442 -331 0
-776 -443 -332 0
-777 -444 -333 0
-775 -445 -334 0
-776 -446 -335 0
-777 -447 -336 0
-775 -448 -337 0
-776 -449 -338 0
-777 -450 -339 0
-775 -451 -340 0
-776 -452 -341 0
-777 -453 -342 0
-775 -454 -343 0
-776 -455 -344 0
-777 -456 -345 0
-775 -457 -346 0
-776 -458 -347 0
-777 -459 -348 0
-775 -460 -349 0
-776 -461 -350 0
-777 -462 -351 0
-775 -463 -352 0
-776 -464 -353 0
-777 -465 -354 0
-775 -466 -355 0
-776 -467 -356 0
-777 -468 -357 0
-775 -469 -358 0
-776 -470 -359 0
-777 -471 -360 0
-775 -472 -361 0
-776 -473 -362 0
-777 -474 -363 0
-775 -475 -364 0
-776 -476 -365 0
-777 -477 -366 0
-775 -478 -367 0
-776 -479 -368 0
-777 -480 -369 0
-775 -481 -370 0
-776 -482 -371 0
-777 -483 -372 0
-775 -484 -373 0
-776 -485 -374 0
-777 -486 -375 0
-775 -487 -376 0
-776 -488 -377 0
-777 -489 -378 0
-775 -490 -379 0
-776 -491 -380 0
-777 -492 -381 0
-775 -493 -382 0
-776 -494 -383 0
-777 -495 -384 0
-775 -496 -385 0
-776 -497 -386 0
-777 -498 -387 0
-775 -499 -388 0
-776 -500 -389 0
-777 -501 -390 0
-775 -502 -391 0
-776 -503 -392 0
-777 -504 -393 0
-775 -505 -394 0
-776 -506 -395 0
-777 -507 -396 0
-775 -508 -397 0
-776 -509 -398 0
-777 -510 -399 0
-775 -511 -400 0
-776 -512 -401 0
-777 -513 -402 0
-775 -514 -403 0
-776 -515 -404 0
-777 -516 -405 0
-775 -517 -406 0
-776 -518 -407 0
-777 -519 -408 0
-775 -520 -409 0
-776 -521 -410 0
-777 -522 -411 0
-775 -523 -412 0
-776 -524 -413 0
-777 -525 -414 0
-775 -526 -415 0
-776 -527 -416 0
-777 -528 -417 0
-775 -529 -418 0
-776 -530 -419 0
-777 -531 -420 0
-775 -532 -421 0
-776 -533 -422 0
-777 -534 -423 0
-775 -535 -424 0
-776 -536 -425 0
-777 -537 -426 0
-775 -538 -427 0
-776 -539 -428 0
-777 -540 -429 0
-775 -541 -430 0
-776 -542 -431 0
-777 -543 -432 0
-775 -544 -433 0
-776 -545 -434 0
-777 -546 -435 0
-775 -547 -436 0
-776 -548 -437 0
-777 -549 -438 0
-775 -550 -439 0
-776 -551 -440 0
-777 -552 -441 0
-775 -553 -442 0
-776 -554 -443 0
-777 -555 -444 0
-775 -556 -445 0
-776 -557 -446 0
-777 -558 -447 0
-775 -559 -448 0
-776 -560 -449 0
-777 -561 -450 0
-775 -562 -451 0
-776 -563 -452 0
-777 -564 -453 0
-775 -565 -454 0
-776 -566 -455 0
-777 -567 -456 0
-775 -568 -457 0
-776 -569 -458 0
-777 -570 -459 0
-775 -571 -460 0
-776 -572 -461 0
-777 -573 -462 0
-775 -574 -463 0
-776 -575 -464 0
-777 -576 -465 0
-775 -577 -466 0
-776 -578 -467 0
-777 -579 -468 0
-775 -580 -469 0
-776 -581 -470 0
-777 -582 -471 0
-775 -583 -472 0
-776 -584 -473 0
-777 -585 -474 0
-775 -586 -475 0
-776 -587 -476 0
-777 -588 -477 0
-775 -589 -478 0
-776 -590 -479 0
-777 -591 -480 0
-775 -592 -481 0
-776 -593 -482 0
-777 -594 -483 0
-775 -595 -484 0
-776 -596 -485 0
-777 -597 -486 0
-775 -598 -487 0
-776 -599 -488 0
-777 -600 -489 0
-775 -601 -490 0
-776 -602 -491 0
-777 -603 -492 0
-775 -604 -493 0
-776 -605 -494 0
-777 -606 -495 0
-775 -607 -496 0
-776 -608 -497 0
-777 -609 -498 0
-775 -610 -499 0
-776 -611 -500 0
-777 -612 -501 0
-775 -613 -502 0
-776 -614 -503 0
-777 -615 -504 0
-775 -616 -505 0
-776 -617 -506 0
-777 -618 -507 0
-775 -619 -508 0
-776 -620 -509 0
-777 -621 -510 0
-775 -622 -511 0
-776 -623 -512 0
-777 -624 -513 0
-775 -625 -514 0
-776 -626 -515 0
-777 -627 -516 0
-775 -628 -517 0
-776 -629 -518 0
-777 -630 -519 0
-775 -631 -520 0
-776 -632 -521 0
-777 -633 -522 0
-775 -634 -523 0
-776 -635 -524 0
-777 -636 -525 0
-775 -637 -526 0
-776 -638 -527 0
-777 -639 -528 0
-775 -640 -529 0
-776 -641 -530 0
-777 -642 -531 0
-775 -643 -532 0
-776 -644 -533 0
-777 -645 -534 0
-775 -646 -535 0
-776 -647 -536 0
-777 -648 -537 0
-775 -649 -538 0
-776 -650 -539 0
-777 -651 -540 0
-775 -652 -541 0
-776 -653 -542 0
-777 -654 -543 0
-775 -655 -544 0
-776 -656 -545 0
-777 -657 -546 0
-775 -658 -547 0
-776 -659 -548 0
-777 -660 -549 0
-775 -661 -550 0
-776 -662 -551 0
-777 -663 -552 0
-775 -664 -553 0
-776 -665 -554 0
-777 -666 -555 0
-775 -667 -556 0
-776 -668 -557 0
-777 -669 -558 0
-775 -670 -559 0
-776 -671 -560 0
-777 -672 -561 0
-775 -673 -562 0
-776 -674 -563 0
-777 -675 -564 0
-775 -676 -565 0
-776 -677 -566 0
-777 -678 -567 0
-775 -679 -568 0
-776 -680 -569 0
-777 -681 -570 0
-775 -682 -571 0
-776 -683 -572 0
-777 -684 -573 0
-775 -685 -574 0
-776 -686 -575 0
-777 -687 -576 0
-775 -688 -577 0
-776 -689 -578 0
-777 -690 -579 0
-775 -691 -580 0
-776 -692 -581 0
-777 -693 -582 0
-775 -694 -583 0
-776 -695 -584 0
-777 -696 -585 0
-775 -697 -586 0
-776 -698 -587 0
-777 -699 -588 0
-775 -700 -589 0
-776 -701 -590 0
-777 -702 -591 0
-775 -703 -592 0
-776 -704 -593 0
-777 -705 -594 0
-775 -706 -595 0
-776 -707 -596 0
-777 -708 -597 0
-775 -709 -598 0
-776 -710 -599 0
-777 -711 -600 0
-775 -712 -601 0
-776 -713 -602 0
-777 -714 -603 0
-775 -715 -604 0
-776 -716 -605 0
-777 -717 -606 0
-775 -718 -607 0
-776 -719 -608 0
-777 -720 -609 0
-775 -721 -610 0
-776 -722 -611 0
-777 -723 -612 0
-775 -724 -613 0
-776 -725 -614 0
-777 -726 -615 0
-775 -727 -616 0
-776 -728 -617 0
-777 -729 -618 0
-775 -730 -619 0
-776 -731 -620 0
-777 -732 -621 0
-775 -733 -622 0
-776 -734 -623 0
-777 -735 -624 0
-775 -736 -625 0
-776 -737 -626 0
-777 -738 -627 0
-775 -739 -628 0
-776 -740 -629 0
-777 -741 -630 0
-775 -742 -631 0
-776 -743 -632 0
-777 -744 -633 0
-775 -745 -634 0
-776 -746 -635 0
-777 -747 -636 0
-775 -748 -637 0
-776 -749 -638 0
-777 -750 -639 0
-775 -751 -640 0
-776 -752 -641 0
-777 -753 -642 0
-775 -754 -643 0
-776 -755 -644 0
-777 -756 -645 0
-775 -757 -646 0
-776 -758 -647 0
-777 -759 -648 0
-775 -760 -649 0
-776 -761 -650 0
-777 -762 -651 0
-775 -763 -652 0
-776 -764 -653 0
-777 -765 -654 0
-775 -766 -655 0
-776 -767 -656 0
-777 -768 -657 0
-775 -769 -658 0
-776 -770 -659 0
-777 -771 -660 0
-775 -772 -661 0
-776 -773 -662 0
-777 -774 -663 0
-775 -664 0
-776 -665 0
-777 -666 0
-778 -775 -667 0
-779 -776 -668 0
-780 -777 -669 0
-781 -775 -670 0
-782 -776 -671 0
-783 -777 -672 0
-784 -775 -673 0
-785 -776 -674 0
-786 -777 -675 0
-787 -775 -676 0
-788 -776 -677 0
-789 -777 -678 0
-790 -775 -679 0
-791 -776 -680 0
-792 -777 -681 0
-793 -775 -682 0
-794 -776 -683 0
-795 -777 -684 0
-796 -775 -685 0
-797 -776 -686 0
-798 -777 -687 0
-799 -775 -688 0
-800 -776 -689 0
-801 -777 -690 0
-802 -775 -691 0
-803 -776 -692 0
-804 -777 -693 0
-805 -775 -694 0
-806 -776 -695 0
-807 -777 -696 0
-808 -775 -697 0
-809 -776 -698 0
-810 -777 -699 0
-811 -775 -700 0
-812 -776 -701 0
-813 -777 -702 0
-814 -775 -703 0
-815 -776 -704 0
-816 -777 -705 0
-817 -775 -706 0
-818 -776 -707 0
-819 -777 -708 0
-820 -775 -709 0
-821 -776 -710 0
-822 -777 -711 0
-823 -775 -712 0
-824 -776 -713 0
-825 -777 -714 0
-826 -775 -715 0
-827 -776 -716 0
-828 -777 -717 0
-829 -775 -718 0
-830 -776 -719 0
-831 -777 -720 0
-832 -775 -721 0
-833 -776 -722 0
-834 -777 -723 0
-835 -775 -724 0
-836 -776 -725 0
-837 -777 -726 0
-838 -775 -727 0
-839 -776 -728 0
-840 -777 -729 0
-841 -775 -730 0
-842 -776 -731 0
-843 -777 -732 0
-844 -775 -733 0
-845 -776 -734 0
-846 -777 -735 0
-847 -775 -736 0
-848 -776 -737 0
-849 -777 -738 0
-850 -775 -739 0
-851 -776 -740 0
-852 -777 -741 0
-853 -775 -742 0
-854 -776 -743 0
-855 -777 -744 0
-856 -775 -745 0
-857 -776 -746 0
-858 -777 -747 0
-859 -775 -748 0
-860 -776 -749 0
-861 -777 -750 0
-862 -775 -751 0
-863 -776 -752 0
-864 -777 -753 0
-865 -775 -754 0
-866 -776 -755 0
-867 -777 -756 0
-868 -775 -757 0
-869 -776 -758 0
-870 -777 -759 0
-871 -775 -760 0
-872 -776 -761 0
-873 -777 -762 0
-874 -775 -763 0
-875 -776 -764 0
-876 -777 -765 0
-877 -775 -766 0
-878 -776 -767 0
-879 -777 -768 0
-880 -775 -769 0
-881 -776 -770 0
-882 -777 -771 0
-883 -775 -772 0
-884 -776 -773 0
-885 -777 -774 0
-886 -775 0
-887 -776 0
-888 -777 0
-889 -778 -775 0
-890 -779 -776 0
-891 -780 -777 0
-892 -781 -775 0
-893 -782 -776 0
-894 -783 -777 0
-895 -784 -775 0
-896 -785 -776 0
-897 -786 -777 0
-898 -787 -775 0
-899 -788 -776 0
-900 -789 -777 0
-901 -790 -775 0
-902 -791 -776 0
-903 -792 -777 0
-904 -793 -775 0
-905 -794 -776 0
-906 -795 -777 0
-907 -796 -775 0
-908 -797 -776 0
-909 -798 -777 0
-910 -799 -775 0
-911 -800 -776 0
-912 -801 -777 0
-913 -802 -775 0
-914 -803 -776 0
-915 -804 -777 0
-916 -805 -775 0
-917 -806 -776 0
-918 -807 -777 0
-919 -808 -775 0
-920 -809 -776 0
-921 -810 -777 0
-922 -811 -775 0
-923 -812 -776 0
-924 -813 -777 0
-925 -814 -775 0
-926 -815 -776 0
-927 -816 -777 0
-928 -817 -775 0
-929 -818 -776 0
-930 -819 -777 0
-931 -820 -775 0
-932 -821 -776 0
-933 -822 -777 0
-934 -823 -775 0
-935 -824 -776 0
-936 -825 -777 0
-937 -826 -775 0
-938 -827 -776 0
-939 -828 -777 0
-940 -829 -775 0
-941 -830 -776 0
-942 -831 -777 0
-943 -832 -775 0
-944 -833 -776 0
-945 -834 -777 0
-946 -835 -775 0
-947 -836 -776 0
-948 -837 -777 0
-949 -838 -775 0
-950 -839 -776 0
-951 -840 -777 0
-952 -841 -775 0
-953 -842 -776 0
-954 -843 -777 0
-955 -844 -775 0
-956 -845 -776 0
-957 -846 -777 0
-958 -847 -775 0
-959 -848 -776 0
-960 -849 -777 0
-961 -850 -775 0
-962 -851 -776 0
-963 -852 -777 0
-964 -853 -775 0
-965 -854 -776 0
-966 -855 -777 0
-967 -856 -775 0
-968 -857 -776 0
-969 -858 -777 0
-970 -859 -775 0
-971 -860 -776 0
-972 -861 -777 0
-973 -862 -775 0
-974 -863 -776 0
-975 -864 -777 0
-976 -865 -775 0
-977 -866 -776 0
-978 -867 -777 0
-979 -868 -775 0
-980 -869 -776 0
-981 -870 -777 0
-982 -871 -775 0
-983 -872 -776 0
-984 -873 -777 0
-985 -874 -775 0
-986 -875 -776 0
-987 -876 -777 0
-988 -877 -775 0
-989 -878 -776 0
-990 -879 -777 0
-991 -880 -775 0
-992 -881 -776 0
-993 -882 -777 0
-994 -883 -775 0
-995 -884 -776 0
-996 -885 -777 0
-997 -886 -775 0
-998 -887 -776 0
-999 -888 -777 0
-1000 -889 -775 0
-1001 -890 -776 0
-1002 -891 -777 0
-1003 -892 -775 0
-1004 -893 -776 0
-1005 -894 -777 0
-1006 -895 -775 0
-1007 -896 -776 0
-1008 -897 -777 0
-1009 -898 -775 0
-1010 -899 -776 0
-1011 -900 -777 0
-1012 -901 -775 0
-1013 -902 -776 0
-1014 -903 -777 0
-1015 -904 -775 0
-1016 -905 -776 0
-1017 -906 -777 0
-1018 -907 -775 0
-1019 -908 -776 0
-1020 -909 -777 0
-1021 -910 -775 0
-1022 -911 -776 0
-1023 -912 -777 0
-1024 -913 -775 0
-1025 -914 -776 0
-1026 -915 -777 0
-1027 -916 -775 0
-1028 -917 -776 0
-1029 -918 -777 0
-796 -115 -1 0
-797 -116 -2 0
-798 -117 -3 0
-796 -118 -4 0
-797 -119 -5 0
-798 -120 -6 0
-796 -121 -7 0
-797 -122 -8 0
-798 -123 -9 0
-796 -124 -10 0
-797 -125 -11 0
-798 -126 -12 0
-796 -127 -13 0
-797 -128 -14 0
-798 -129 -15 0
-796 -130 -16 0
-797 -131 -17 0
-798 -132 -18 0
-796 -133 -19 0
-797 -134 -20 0
-798 -135 -21 0
-796 -136 -22 0
-797 -137 -23 0
-798 -138 -24 0
-796 -139 -25 0
-797 -140 -26 0
-798 -141 -27 0
-796 -142 -28 0
-797 -143 -29 0
-798 -144 -30 0
-796 -145 -31 0
-797 -146 -32 0
-798 -147 -33 0
-796 -148 -34 0
-797 -149 -35 0
-798 -150 -36 0
-796 -151 -37 0
-797 -152 -38 0
-798 -153 -39 0
-796 -154 -40 0
-797 -155 -41 0
-798 -156 -42 0
-796 -157 -43 0
-797 -158 -44 0
-798 -159 -45 0
-796 -160 -46 0
-797 -161 -47 0
-798 -162 -48 0
-796 -163 -49 0
-797 -164 -50 0
-798 -165 -51 0
-796 -166 -52 0
-797 -167 -53 0
-798 -168 -54 0
-796 -169 -55 0
-797 -170 -56 0
-798 -171 -57 0
-796 -172 -58 0
-797 -173 -59 0
-798 -174 -60 0
-796 -175 -61 0
-797 -176 -62 0
-798 -177 -63 0
-796 -178 -64 0
-797 -179 -65 0
-798 -180 -66 0
-796 -181 -67 0
-797 -182 -68 0
-798 -183 -69 0
-796 -184 -70 0
-797 -185 -71 0
-798 -186 -72 0
-796 -187 -73 0
-797 -188 -74 0
-798 -189 -75 0
-796 -190 -76 0
-797 -191 -77 0
-798 -192 -78 0
-796 -193 -79 0
-797 -194 -80 0
-798 -195 -81 0
-796 -196 -82 0
-797 -197 -83 0
-798 -198 -84 0
-796 -199 -85 0
-797 -200 -86 0
-798 -201 -87 0
-796 -202 -88 0
-797 -203 -89 0
-798 -204 -90 0
-796 -205 -91 0
-797 -206 -92 0
-798 -207 -93 0
-796 -208 -94 0
-797 -209 -95 0
-798 -210 -96 0
-796 -211 -97 0
-797 -212 -98 0
-798 -213 -99 0
-796 -214 -100 0
-797 -215 -101 0
-798 -216 -102 0
-796 -217 -103 0
-797 -218 -104 0
-798 -219 -105 0
-796 -220 -106 0
-797 -221 -107 0
-798 -222 -108 0
-796 -223 -109 0
-797 -224 -110 0
-798 -225 -111 0
-796 -226 -112 0
-797 -227 -113 0
-798 -228 -114 0
-796 -229 -115 0
-797 -230 -116 0
-798 -231 -117 0
-796 -232 -118 0
-797 -233 -119 0
-798 -234 -120 0
-796 -235 -121 0
-797 -236 -122 0
-798 -237 -123 0
-796 -238 -124 0
-797 -239 -125 0
-798 -240 -126 0
-796 -241 -127 0
-797 -242 -128 0
-798 -243 -129 0
-796 -244 -130 0
-797 -245 -131 0
-798 -246 -132 0
-796 -247 -133 0
-797 -248 -134 0
-798 -249 -135 0
-796 -250 -136 0
-797 -251 -137 0
-798 -252 -138 0
-796 -253 -139 0
-797 -254 -140 0
-798 -255 -141 0
-796 -256 -142 0
-797 -257 -143 0
-798 -258 -144 0
-796 -259 -145 0
-797 -260 -146 0
-798 -261 -147 0
-796 -262 -148 0
-797 -263 -149 0
-798 -264 -150 0
-796 -265 -151 0
-797 -266 -152 0
-798 -267 -153 0
-796 -268 -154 0
-797 -269 -155 0
-798 -270 -156 0
-796 -271 -157 0
-797 -272 -158 0
-798 -273 -159 0
-796 -274 -160 0
-797 -275 -161 0
-798 -276 -162 0
-796 -277 -163 0
-797 -278 -164 0
-798 -279 -165 0
-796 -280 -166 0
-797 -281 -167 0
-798 -282 -168 0
-796 -283 -169 0
-797 -284 -170 0
-798 -285 -171 0
-796 -286 -172 0
-797 -287 -173 0
-798 -288 -174 0
-796 -289 -175 0
-797 -290 -176 0
-798 -291 -177 0
-796 -292 -178 0
-797 -293 -179 0
-798 -294 -180 0
-796 -295 -181 0
-797 -296 -182 0
-798 -297 -183 0
-796 -298 -184 0
-797 -299 -185 0
-798 -300 -186 0
-796 -301 -187 0
-797 -302 -188 0
-798 -303 -189 0
-796 -304 -190 0
-797 -305 -191 0
-798 -306 -192 0
-796 -307 -193 0
-797 -308 -194 0
-798 -309 -195 0
-796 -310 -196 0
-797 -311 -197 0
-798 -312 -198 0
-796 -313 -199 0
-797 -314 -200 0
-798 -315 -201 0
-796 -316 -202 0
-797 -317 -203 0
-798 -318 -204 0
-796 -319 -205 0
-797 -320 -206 0
-798 -321 -207 0
-796 -322 -208 0
-797 -323 -209 0
-798 -324 -210 0
-796 -325 -211 0
-797 -326 -212 0
-798 -327 -213 0
-796 -328 -214 0
-797 -329 -215 0
-798 -330 -216 0
-796 -331 -217 0
-797 -332 -218 0
-798 -333 -219 0
-796 -334 -220 0
-797 -335 -221 0
-798 -336 -222 0
-796 -337 -223 0
-797 -338 -224 0
-798 -339 -225 0
-796 -340 -226 0
-797 -341 -227 0
-798 -342 -228 0
-796 -343 -229 0
-797 -344 -230 0
-798 -345 -231 0
-796 -346 -232 0
-797 -347 -233 0
-798 -348 -234 0
-796 -349 -235 0
-797 -350 -236 0
-798 -351 -237 0
-796 -352 -238 0
-797 -353 -239 0
-798 -354 -240 0
-796 -355 -241 0
-797 -356 -242 0
-798 -357 -243 0
-796 -358 -244 0
-797 -359 -245 0
-798 -360 -246 0
-796 -361 -247 0
-797 -362 -248 0
-798 -363 -249 0
-796 -364 -250 0
-797 -365 -251 0
-798 -366 -252 0
-796 -367 -253 0
-797 -368 -254 0
-798 -369 -255 0
-796 -370 -256 0
-797 -371 -257 0
-798 -372 -258 0
-796 -373 -259 0
-797 -374 -260 0
-798 -375 -261 0
-796 -376 -262 0
-797 -377 -263 0
-798 -378 -264 0
-796 -379 -265 0
-797 -380 -266 0
-798 -381 -267 0
-796 -382 -268 0
-797 -383 -269 0
-798 -384 -270 0
-796 -385 -271 0
-797 -386 -272 0
-798 -387 -273 0
-796 -388 -274 0
-797 -389 -275 0
-798 -390 -276 0
-796 -391 -277 0
-797 -392 -278 0
-798 -393 -279 0
-796 -394 -280 0
-797 -395 -281 0
-798 -396 -282 0
-796 -397 -283 0
-797 -398 -284 0
-798 -399 -285 0
-796 -400 -286 0
-797 -401 -287 0
-798 -402 -288 0
-796 -403 -289 0
-797 -404 -290 0
-798 -405 -291 0
-796 -406 -292 0
-797 -407 -293 0
-798 -408 -294 0
-796 -409 -295 0
-797 -410 -296 0
-798 -411 -297 0
-796 -412 -298 0
-797 -413 -299 0
-798 -414 -300 0
-796 -415 -301 0
-797 -416 -302 0
-798 -417 -303 0
-796 -418 -304 0
-797 -419 -305 0
-798 -420 -306 0
-796 -421 -307 0
-797 -422 -308 0
-798 -423 -309 0
-796 -424 -310 0
-797 -425 -311 0
-798 -426 -312 0
-796 -427 -313 0
-797 -428 -314 0
-798 -429 -315 0
-796 -430 -316 0
-797 -431 -317 0
-798 -432 -318 0
-796 -433 -319 0
-797 -434 -320 0
-798 -435 -321 0
-796 -436 -322 0
-797 -437 -323 0
-798 -438 -324 0
-796 -439 -325 0
-797 -440 -326 0
-798 -441 -327 0
-796 -442 -328 0
-797 -443 -329 0
-798 -444 -330 0
-796 -445 -331 0
-797 -446 -332 0
-798 -447 -333 0
-796 -448 -334 0
-797 -449 -335 0
-798 -450 -336 0
-796 -451 -337 0
-797 -452 -338 0
-798 -453 -339 0
-796 -454 -340 0
-797 -455 -341 0
-798 -456 -342 0
-796 -457 -343 0
-797 -458 -344 0
-798 -459 -345 0
-796 -460 -346 0
-797 -461 -347 0
-798 -462 -348 0
-796 -463 -349 0
-797 -464 -350 0
-798 -465 -351 0
-796 -466 -352 0
-797 -467 -353 0
-798 -468 -354 0
-796 -469 -355 0
-797 -470 -356 0
-798 -471 -357 0
-796 -472 -358 0
-797 -473 -359 0
-798 -474 -360 0
-796 -475 -361 0
-797 -476 -362 0
-798 -477 -363 0
-796 -478 -364 0
-797 -479 -365 0
-798 -480 -366 0
-796 -481 -367 0
-797 -482 -368 0
-798 -483 -369 0
-796 -484 -370 0
-797 -485 -371 0
-798 -486 -372 0
-796 -487 -373 0
-797 -488 -374 0
-798 -489 -375 0
-796 -490 -376 0
-797 -491 -377 0
-798 -492 -378 0
-796 -493 -379 0
-797 -494 -380 0
-798 -495 -381 0
-796 -496 -382 0
-797 -497 -383 0
-798 -498 -384 0
-796 -499 -385 0
-797 -500 -386 0
-798 -501 -387 0
-796 -502 -388 0
-797 -503 -389 0
-798 -504 -390 0
-796 -505 -391 0
-797 -506 -392 0
-798 -507 -393 0
-796 -508 -394 0
-797 -509 -395 0
-798 -510 -396 0
-796 -511 -397 0
-797 -512 -398 0
-798 -513 -399 0
-796 -514 -400 0
-797 -515 -401 0
-798 -516 -402 0
-796 -517 -403 0
-797 -518 -404 0
-798 -519 -405 0
-796 -520 -406 0
-797 -521 -407 0
-798 -522 -408 0
-796 -523 -409 0
-797 -524 -410 0
-798 -525 -411 0
-796 -526 -412 0
-797 -527 -413 0
-798 -528 -414 0
-796 -529 -415 0
-797 -530 -416 0
-798 -531 -417 0
-796 -532 -418 0
-797 -533 -419 0
-798 -534 -420 0
-796 -535 -421 0
-797 -536 -422 0
-798 -537 -423 0
-796 -538 -424 0
-797 -539 -425 0
-798 -540 -426 0
-796 -541 -427 0
-797 -542 -428 0
-798 -543 -429 0
-796 -544 -430 0
-797 -545 -431 0
-798 -546 -432 0
-796 -547 -433 0
-797 -548 -434 0
-798 -549 -435 0
-796 -550 -436 0
-797 -551 -437 0
-798 -552 -438 0
-796 -553 -439 0
-797 -554 -440 0
-798 -555 -441 0
-796 -556 -442 0
-797 -557 -443 0
-798 -558 -444 0
-796 -559 -445 0
-797 -560 -446 0
-798 -561 -447 0
-796 -562 -448 0
-797 -563 -449 0
-798 -564 -450 0
-796 -565 -451 0
-797 -566 -452 0
-798 -567 -453 0
-796 -568 -454 0
-797 -569 -455 0
-798 -570 -456 0
-796 -571 -457 0
-797 -572 -458 0
-798 -573 -459 0
-796 -574 -460 0
-797 -575 -461 0
-798 -576 -462 0
-796 -577 -463 0
-797 -578 -464 0
-798 -579 -465 0
-796 -580 -466 0
-797 -581 -467 0
-798 -582 -468 0
-796 -583 -469 0
-797 -584 -470 0
-798 -585 -471 0
-796 -586 -472 0
-797 -587 -473 0
-798 -588 -474 0
-796 -589 -475 0
-797 -590 -476 0
-798 -591 -477 0
-796 -592 -478 0
-797 -593 -479 0
-798 -594 -480 0
-796 -595 -481 0
-797 -596 -482 0
-798 -597 -483 0
-796 -598 -484 0
-797 -599 -485 0
-798 -600 -486 0
-796 -601 -487 0
-797 -602 -488 0
-798 -603 -489 0
-796 -604 -490 0
-797 -605 -491 0
-798 -606 -492 0
-796 -607 -493 0
-797 -608 -494 0
-798 -609 -495 0
-796 -610 -496 0
-797 -611 -497 0
-798 -612 -498 0
-796 -613 -499 0
-797 -614 -500 0
-798 -615 -501 0
-796 -616 -502 0
-797 -617 -503 0
-798 -618 -504 0
-796 -619 -505 0
-797 -620 -506 0
-798 -621 -507 0
-796 -622 -508 0
-797 -623 -509 0
-798 -624 -510 0
-796 -625 -511 0
-797 -626 -512 0
-798 -627 -513 0
-796 -628 -514 0
-797 -629 -515 0
-798 -630 -516 0
-796 -631 -517 0
-797 -632 -518 0
-798 -633 -519 0
-796 -634 -520 0
-797 -635 -521 0
-798 -636 -522 0
-796 -637 -523 0
-797 -638 -524 0
-798 -639 -525 0
-796 -640 -526 0
-797 -641 -527 0
-798 -642 -528 0
-796 -643 -529 0
-797 -644 -530 0
-798 -645 -531 0
-796 -646 -532 0
-797 -647 -533 0
-798 -648 -534 0
-796 -649 -535 0
-797 -650 -536 0
-798 -651 -537 0
-796 -652 -538 0
-797 -653 -539 0
-798 -654 -540 0
-796 -655 -541 0
-797 -656 -542 0
-798 -657 -543 0
-796 -658 -544 0
-797 -659 -545 0
-798 -660 -546 0
-796 -661 -547 0
-797 -662 -548 0
-798 -663 -549 0
-796 -664 -550 0
-797 -665 -551 0
-798 -666 -552 0
-796 -667 -553 0
-797 -668 -554 0
-798 -669 -555 0
-796 -670 -556 0
-797 -671 -557 0
-798 -672 -558 0
-796 -673 -559 0
-797 -674 -560 0
-798 -675 -561 0
-796 -676 -562 0
-797 -677 -563 0
-798 -678 -564 0
-796 -679 -565 0
-797 -680 -566 0
-798 -681 -567 0
-796 -682 -568 0
-797 -683 -569 0
-798 -684 -570 0
-796 -685 -571 0
-797 -686 -572 0
-798 -687 -573 0
-796 -688 -574 0
-797 -689 -575 0
-798 -690 -576 0
-796 -691 -577 0
-797 -692 -578 0
-798 -693 -579 0
-796 -694 -580 0
-797 -695 -581 0
-798 -696 -582 0
-796 -697 -583 0
-797 -698 -584 0
-798 -699 -585 0
-796 -700 -586 0
-797 -701 -587 0
-798 -702 -588 0
-796 -703 -589 0
-797 -704 -590 0
-798 -705 -591 0
-796 -706 -592 0
-797 -707 -593 0
-798 -708 -594 0
-796 -709 -595 0
-797 -710 -596 0
-798 -711 -597 0
-796 -712 -598 0
-797 -713 -599 0
-798 -714 -600 0
-796 -715 -601 0
-797 -716 -602 0
-798 -717 -603 0
-796 -718 -604 0
-797 -719 -605 0
-798 -720 -606 0
-796 -721 -607 0
-797 -722 -608 0
-798 -723 -609 0
-796 -724 -610 0
-797 -725 -611 0
-798 -726 -612 0
-796 -727 -613 0
-797 -728 -614 0
-798 -729 -615 0
-796 -730 -616 0
-797 -731 -617 0
-798 -732 -618 0
-796 -733 -619 0
-797 -734 -620 0
-798 -735 -621 0
-796 -736 -622 0
-797 -737 -623 0
-798 -738 -624 0
-796 -739 -625 0
-797 -740 -626 0
-798 -741 -627 0
-796 -742 -628 0
-797 -743 -629 0
-798 -744 -630 0
-796 -745 -631 0
-797 -746 -632 0
-798 -747 -633 0
-796 -748 -634 0
-797 -749 -635 0
-798 -750 -636 0
-796 -751 -637 0
-797 -752 -638 0
-798 -753 -639 0
-796 -754 -640 0
-797 -755 -641 0
-798 -756 -642 0
-796 -757 -643 0
-797 -758 -644 0
-798 -759 -645 0
-796 -760 -646 0
-797 -761 -647 0
-798 -762 -648 0
-796 -763 -649 0
-797 -764 -650 0
-798 -765 -651 0
-796 -766 -652 0
-797 -767 -653 0
-798 -768 -654 0
-796 -769 -655 0
-797 -770 -656 0
-798 -771 -657 0
-796 -772 -658 0
-797 -773 -659 0
-798 -774 -660 0
-796 -775 -661 0
-797 -776 -662 0
-798 -777 -663 0
-796 -778 -664 0
-797 -779 -665 0
-798 -780 -666 0
-796 -781 -667 0
-797 -782 -668 0
-798 -783 -669 0
-796 -784 -670 0
-797 -785 -671 0
-798 -786 -672 0
-796 -787 -673 0
-797 -788 -674 0
-798 -789 -675 0
-796 -790 -676 0
-797 -791 -677 0
-798 -792 -678 0
-796 -793 -679 0
-797 -794 -680 0
-798 -795 -681 0
-796 -682 0
-797 -683 0
-798 -684 0
-799 -796 -685 0
-800 -797 -686 0
-801 -798 -687 0
-802 -796 -688 0
-803 -797 -689 0
-804 -798 -690 0
-805 -796 -691 0
-806 -797 -692 0
-807 -798 -693 0
-808 -796 -694 0
-809 -797 -695 0
-810 -798 -696 0
-811 -796 -697 0
-812 -797 -698 0
-813 -798 -699 0
-814 -796 -700 0
-815 -797 -701 0
-816 -798 -702 0
-817 -796 -703 0
-818 -797 -704 0
-819 -798 -705 0
-820 -796 -706 0
-821 -797 -707 0
-822 -798 -708 0
-823 -796 -709 0
-824 -797 -710 0
-825 -798 -711 0
-826 -796 -712 0
-827 -797 -713 0
-828 -798 -714 0
-829 -796 -715 0
-830 -797 -716 0
-831 -798 -717 0
-832 -796 -718 0
-833 -797 -719 0
-834 -798 -720 0
-835 -796 -721 0
-836 -797 -722 0
-837 -798 -723 0
-838 -796 -724 0
-839 -797 -725 0
-840 -798 -726 0
-841 -796 -727 0
-842 -797 -728 0
-843 -798 -729 0
-844 -796 -730 0
-845 -797 -731 0
-846 -798 -732 0
-847 -796 -733 0
-848 -797 -734 0
-849 -798 -735 0
-850 -796 -736 0
-851 -797 -737 0
-852 -798 -738 0
-853 -796 -739 0
-854 -797 -740 0
-855 -798 -741 0
-856 -796 -742 0
-857 -797 -743 0
-858 -798 -744 0
-859 -796 -745 0
-860 -797 -746 0
-861 -798 -747 0
-862 -796 -748 0
-863 -797 -749 0
-864 -798 -750 0
-865 -796 -751 0
-866 -797 -752 0
-867 -798 -753 0
-868 -796 -754 0
-869 -797 -755 0
-870 -798 -756 0
-871 -796 -757 0
-872 -797 -758 0
-873 -798 -759 0
-874 -796 -760 0
-875 -797 -761 0
-876 -798 -762 0
-877 -796 -763 0
-878 -797 -764 0
-879 -798 -765 0
-880 -796 -766 0
-881 -797 -767 0
-882 -798 -768 0
-883 -796 -769 0
-884 -797 -770 0
-885 -798 -771 0
-886 -796 -772 0
-887 -797 -773 0
-888 -798 -774 0
-889 -796 -775 0
-890 -797 -776 0
-891 -798 -777 0
-892 -796 -778 0
-893 -797 -779 0
-894 -798 -780 0
-895 -796 -781 0
-896 -797 -782 0
-897 -798 -783 0
-898 -796 -784 0
-899 -797 -785 0
-900 -798 -786 0
-901 -796 -787 0
-902 -797 -788 0
-903 -798 -789 0
-904 -796 -790 0
-905 -797 -791 0
-906 -798 -792 0
-907 -796 -793 0
-908 -797 -794 0
-909 -798 -795 0
-910 -796 0
-911 -797 0
-912 -798 0
-913 -799 -796 0
-914 -800 -797 0
-915 -801 -798 0
-916 -802 -796 0
-917 -803 -797 0
-918 -804 -798 0
-919 -805 -796 0
-920 -806 -797 0
-921 -807 -798 0
-922 -808 -796 0
-923 -809 -797 0
-924 -810 -798 0
-925 -811 -796 0
-926 -812 -797 0
-927 -813 -798 0
-928 -814 -796 0
-929 -815 -797 0
-930 -816 -798 0
-931 -817 -796 0
-932 -818 -797 0
-933 -819 -798 0
-934 -820 -796 0
-935 -821 -797 0
-936 -822 -798 0
-937 -823 -796 0
-938 -824 -797 0
-939 -825 -798 0
-940 -826 -796 0
-941 -827 -797 0
-942 -828 -798 0
-943 -829 -796 0
-944 -830 -797 0
-945 -831 -798 0
-946 -832 -796 0
-947 -833 -797 0
-948 -834 -798 0
-949 -835 -796 0
-950 -836 -797 0
-951 -837 -798 0
-952 -838 -796 0
-953 -839 -797 0
-954 -840 -798 0
-955 -841 -796 0
-956 -842 -797 0
-957 -843 -798 0
-958 -844 -796 0
-959 -845 -797 0
-960 -846 -798 0
-961 -847 -796 0
-962 -848 -797 0
-963 -849 -798 0
-964 -850 -796 0
-965 -851 -797 0
-966 -852 -798 0
-967 -853 -796 0
-968 -854 -797 0
-969 -855 -798 0
-970 -856 -796 0
-971 -857 -797 0
-972 -858 -798 0
-973 -859 -796 0
-974 -860 -797 0
-975 -861 -798 0
-976 -862 -796 0
-977 -863 -797 0
-978 -864 -798 0
-979 -865 -796 0
-980 -866 -797 0
-981 -867 -798 0
-982 -868 -796 0
-983 -869 -797 0
-984 -870 -798 0
-985 -871 -796 0
-986 -872 -797 0
-987 -873 -798 0
-988 -874 -796 0
-989 -875 -797 0
-990 -876 -798 0
-991 -877 -796 0
-992 -878 -797 0
-993 -879 -798 0
-994 -880 -796 0
-995 -881 -797 0
-996 -882 -798 0
-997 -883 -796 0
-998 -884 -797 0
-999 -885 -798 0
-1000 -886 -796 0
-1001 -887 -797 0
-1002 -888 -798 0
-1003 -889 -796 0
-1004 -890 -797 0
-1005 -891 -798 0
-1006 -892 -796 0
-1007 -893 -797 0
-1008 -894 -798 0
-1009 -895 -796 0
-1010 -896 -797 0
-1011 -897 -798 0
-1012 -898 -796 0
-1013 -899 -797 0
-1014 -900 -798 0
-1015 -901 -796 0
-1016 -902 -797 0
-1017 -903 -798 0
-1018 -904 -796 0
-1019 -905 -797 0
-1020 -906 -798 0
-1021 -907 -796 0
-1022 -908 -797 0
-1023 -909 -798 0
-1024 -910 -796 0
-1025 -911 -797 0
-1026 -912 -798 0
-1027 -913 -796 0
-1028 -914 -797 0
-1029 -915 -798 0
-817 -118 -1 0
-818 -119 -2 0
-819 -120 -3 0
-817 -121 -4 0
-818 -122 -5 0
-819 -123 -6 0
-817 -124 -7 0
-818 -125 -8 0
-819 -126 -9 0
-817 -127 -10 0
-818 -128 -11 0
-819 -129 -12 0
-817 -130 -13 0
-818 -131 -14 0
-819 -132 -15 0
-817 -133 -16 0
-818 -134 -17 0
-819 -135 -18 0
-817 -136 -19 0
-818 -137 -20 0
-819 -138 -21 0
-817 -139 -22 0
-818 -140 -23 0
-819 -141 -24 0
-817 -142 -25 0
-818 -143 -26 0
-819 -144 -27 0
-817 -145 -28 0
-818 -146 -29 0
-819 -147 -30 0
-817 -148 -31 0
-818 -149 -32 0
-819 -150 -33 0
-817 -151 -34 0
-818 -152 -35 0
-819 -153 -36 0
-817 -154 -37 0
-818 -155 -38 0
-819 -156 -39 0
-817 -157 -40 0
-818 -158 -41 0
-819 -159 -42 0
-817 -160 -43 0
-818 -161 -44 0
-819 -162 -45 0
-817 -163 -46 0
-818 -164 -47 0
-819 -165 -48 0
-817 -166 -49 0
-818 -167 -50 0
-819 -168 -51 0
-817 -169 -52 0
-818 -170 -53 0
-819 -171 -54 0
-817 -172 -55 0
-818 -173 -56 0
-819 -174 -57 0
-817 -175 -58 0
-818 -176 -59 0
-819 -177 -60 0
-817 -178 -61 0
-818 -179 -62 0
-819 -180 -63 0
-817 -181 -64 0
-818 -182 -65 0
-819 -183 -66 0
-817 -184 -67 0
-818 -185 -68 0
-819 -186 -69 0
-817 -187 -70 0
-818 -188 -71 0
-819 -189 -72 0
-817 -190 -73 0
-818 -191 -74 0
-819 -192 -75 0
-817 -193 -76 0
-818 -194 -77 0
-819 -195 -78 0
-817 -196 -79 0
-818 -197 -80 0
-819 -198 -81 0
-817 -199 -82 0
-818 -200 -83 0
-819 -201 -84 0
-817 -202 -85 0
-818 -203 -86 0
-819 -204 -87 0
-817 -205 -88 0
-818 -206 -89 0
-819 -207 -90 0
-817 -208 -91 0
-818 -209 -92 0
-819 -210 -93 0
-817 -211 -94 0
-818 -212 -95 0
-819 -213 -96 0
-817 -214 -97 0
-818 -215 -98 0
-819 -216 -99 0
-817 -217 -100 0
-818 -218 -101 0
-819 -219 -102 0
-817 -220 -103 0
-818 -221 -104 0
-819 -222 -105 0
-817 -223 -106 0
-818 -224 -107 0
-819 -225 -108 0
-817 -226 -109 0
-818 -227 -110 0
-819 -228 -111 0
-817 -229 -112 0
-818 -230 -113 0
-819 -231 -114 0
-817 -232 -115 0
-818 -233 -116 0
-819 -234 -117 0
-817 -235 -118 0
-818 -236 -119 0
-819 -237 -120 0
-817 -238 -121 0
-818 -239 -122 0
-819 -240 -123 0
-817 -241 -124 0
-818 -242 -125 0
-819 -243 -126 0
-817 -244 -127 0
-818 -245 -128 0
-819 -246 -129 0
-817 -247 -130 0
-818 -248 -131 0
-819 -249 -132 0
-817 -250 -133 0
-818 -251 -134 0
-819 -252 -135 0
-817 -253 -136 0
-818 -254 -137 0
-819 -255 -138 0
-817 -256 -139 0
-818 -257 -140 0
-819 -258 -141 0
-817 -259 -142 0
-818 -260 -143 0
-819 -261 -144 0
-817 -262 -145 0
-818 -263 -146 0
-819 -264 -147 0
-817 -265 -148 0
-818 -266 -149 0
-819 -267 -150 0
-817 -268 -151 0
-818 -269 -152 0
-819 -270 -153 0
-817 -271 -154 0
-818 -272 -155 0
-819 -273 -156 0
-817 -274 -157 0
-818 -275 -158 0
-819 -276 -159 0
-817 -277 -160 0
-818 -278 -161 0
-819 -279 -162 0
-817 -280 -163 0
-818 -281 -164 0
-819 -282 -165 0
-817 -283 -166 0
-818 -284 -167 0
-819 -285 -168 0
-817 -286 -169 0
-818 -287 -170 0
-819 -288 -171 0
-817 -289 -172 0
-818 -290 -173 0
-819 -291 -174 0
-817 -292 -175 0
-818 -293 -176 0
-819 -294 -177 0
-817 -295 -178 0
-818 -296 -179 0
-819 -297 -180 0
-817 -298 -181 0
-818 -299 -182 0
-819 -300 -183 0
-817 -301 -184 0
-818 -302 -185 0
-819 -303 -186 0
-817 -304 -187 0
-818 -305 -188 0
-819 -306 -189 0
-817 -307 -190 0
-818 -308 -191 0
-819 -309 -192 0
-817 -310 -193 0
-818 -311 -194 0
-819 -312 -195 0
-817 -313 -196 0
-818 -314 -197 0
-819 -315 -198 0
-817 -316 -199 0
-818 -317 -200 0
-819 -318 -201 0
-817 -319 -202 0
-818 -320 -203 0
-819 -321 -204 0
-817 -322 -205 0
-818 -323 -206 0
-819 -324 -207 0
-817 -325 -208 0
-818 -326 -209 0
-819 -327 -210 0
-817 -328 -211 0
-818 -329 -212 0
-819 -330 -213 0
-817 -331 -214 0
-818 -332 -215 0
-819 -333 -216 0
-817 -334 -217 0
-818 -335 -218 0
-819 -336 -219 0
-817 -337 -220 0
-818 -338 -221 0
-819 -339 -222 0
-817 -340 -223 0
-818 -341 -224 0
-819 -342 -225 0
-817 -343 -226 0
-818 -344 -227 0
-819 -345 -228 0
-817 -346 -229 0
-818 -347 -230 0
-819 -348 -231 0
-817 -349 -232 0
-818 -350 -233 0
-819 -351 -234 0
-817 -352 -235 0
-818 -353 -236 0
-819 -354 -237 0
-817 -355 -238 0
-818 -356 -239 0
-819 -357 -240 0
-817 -358 -241 0
-818 -359 -242 0
-819 -360 -243 0
-817 -361 -244 0
-818 -362 -245 0
-819 -363 -246 0
-817 -364 -247 0
-818 -365 -248 0
-819 -366 -249 0
-817 -367 -250 0
-818 -368 -251 0
-819 -369 -252 0
-817 -370 -253 0
-818 -371 -254 0
-819 -372 -255 0
-817 -373 -256 0
-818 -374 -257 0
-819 -375 -258 0
-817 -376 -259 0
-818 -377 -260 0
-819 -378 -261 0
-817 -379 -262 0
-818 -380 -263 0
-819 -381 -264 0
-817 -382 -265 0
-818 -383 -266 0
-819 -384 -267 0
-817 -385 -268 0
-818 -386 -269 0
-819 -387 -270 0
-817 -388 -271 0
-818 -389 -272 0
-819 -390 -273 0
-817 -391 -274 0
-818 -392 -275 0
-819 -393 -276 0
-817 -394 -277 0
-818 -395 -278 0
-819 -396 -279 0
-817 -397 -280 0
-818 -398 -281 0
-819 -399 -282 0
-817 -400 -283 0
-818 -401 -284 0
-819 -402 -285 0
-817 -403 -286 0
-818 -404 -287 0
-819 -405 -288 0
-817 -406 -289 0
-818 -407 -290 0
-819 -408 -291 0
-817 -409 -292 0
-818 -410 -293 0
-819 -411 -294 0
-817 -412 -295 0
-818 -413 -296 0
-819 -414 -297 0
-817 -415 -298 0
-818 -416 -299 0
-819 -417 -300 0
-817 -418 -301 0
-818 -419 -302 0
-819 -420 -303 0
-817 -421 -304 0
-818 -422 -305 0
-819 -423 -306 0
-817 -424 -307 0
-818 -425 -308 0
-819 -426 -309 0
-817 -427 -310 0
-818 -428 -311 0
-819 -429 -312 0
-817 -430 -313 0
-818 -431 -314 0
-819 -432 -315 0
-817 -433 -316 0
-818 -434 -317 0
-819 -435 -318 0
-817 -436 -319 0
-818 -437 -320 0
-819 -438 -321 0
-817 -439 -322 0
-818 -440 -323 0
-819 -441 -324 0
-817 -442 -325 0
-818 -443 -326 0
-819 -444 -327 0
-817 -445 -328 0
-818 -446 -329 0
-819 -447 -330 0
-817 -448 -331 0
-818 -449 -332 0
-819 -450 -333 0
-817 -451 -334 0
-818 -452 -335 0
-819 -453 -336 0
-817 -454 -337 0
-818 -455 -338 0
-819 -456 -339 0
-817 -457 -340 0
-818 -458 -341 0
-819 -459 -342 0
-817 -460 -343 0
-818 -461 -344 0
-819 -462 -345 0
-817 -463 -346 0
-818 -464 -347 0
-819 -465 -348 0
-817 -466 -349 0
-818 -467 -350 0
-819 -468 -351 0
-817 -469 -352 0
-818 -470 -353 0
-819 -471 -354 0
-817 -472 -355 0
-818 -473 -356 0
-819 -474 -357 0
-817 -475 -358 0
-818 -476 -359 0
-819 -477 -360 0
-817 -478 -361 0
-818 -479 -362 0
-819 -480 -363 0
-817 -481 -364 0
-818 -482 -365 0
-819 -483 -366 0
-817 -484 -367 0
-818 -485 -368 0
-819 -486 -369 0
-817 -487 -370 0
-818 -488 -371 0
-819 -489 -372 0
-817 -490 -373 0
-818 -491 -374 0
-819 -492 -375 0
-817 -493 -376 0
-818 -494 -377 0
-819 -495 -378 0
-817 -496 -379 0
-818 -497 -380 0
-819 -498 -381 0
-817 -499 -382 0
-818 -500 -383 0
-819 -501 -384 0
-817 -502 -385 0
-818 -503 -386 0
-819 -504 -387 0
-817 -505 -388 0
-818 -506 -389 0
-819 -507 -390 0
-817 -508 -391 0
-818 -509 -392 0
-819 -510 -393 0
-817 -511 -394 0
-818 -512 -395 0
-819 -513 -396 0
-817 -514 -397 0
-818 -515 -398 0
-819 -516 -399 0
-817 -517 -400 0
-818 -518 -401 0
-819 -519 -402 0
-817 -520 -403 0
-818 -521 -404 0
-819 -522 -405 0
-817 -523 -406 0
-818 -524 -407 0
-819 -525 -408 0
-817 -526 -409 0
-818 -527 -410 0
-819 -528 -411 0
-817 -529 -412 0
-818 -530 -413 0
-819 -531 -414 0
-817 -532 -415 0
-818 -533 -416 0
-819 -534 -417 0
-817 -535 -418 0
-818 -536 -419 0
-819 -537 -420 0
-817 -538 -421 0
-818 -539 -422 0
-819 -540 -423 0
-817 -541 -424 0
-818 -542 -425 0
-819 -543 -426 0
-817 -544 -427 0
-818 -545 -428 0
-819 -546 -429 0
-817 -547 -430 0
-818 -548 -431 0
-819 -549 -432 0
-817 -550 -433 0
-818 -551 -434 0
-819 -552 -435 0
-817 -553 -436 0
-818 -554 -437 0
-819 -555 -438 0
-817 -556 -439 0
-818 -557 -440 0
-819 -558 -441 0
-817 -559 -442 0
-818 -560 -443 0
-819 -561 -444 0
-817 -562 -445 0
-818 -563 -446 0
-819 -564 -447 0
-817 -565 -448 0
-818 -566 -449 0
-819 -567 -450 0
-817 -568 -451 0
-818 -569 -452 0
-819 -570 -453 0
-817 -571 -454 0
-818 -572 -455 0
-819 -573 -456 0
-817 -574 -457 0
-818 -575 -458 0
-819 -576 -459 0
-817 -577 -460 0
-818 -578 -461 0
-819 -579 -462 0
-817 -580 -463 0
-818 -581 -464 0
-819 -582 -465 0
-817 -583 -466 0
-818 -584 -467 0
-819 -585 -468 0
-817 -586 -469 0
-818 -587 -470 0
-819 -588 -471 0
-817 -589 -472 0
-818 -590 -473 0
-819 -591 -474 0
-817 -592 -475 0
-818 -593 -476 0
-819 -594 -477 0
-817 -595 -478 0
-818 -596 -479 0
-819 -597 -480 0
-817 -598 -481 0
-818 -599 -482 0
-819 -600 -483 0
-817 -601 -484 0
-818 -602 -485 0
-819 -603 -486 0
-817 -604 -487 0
-818 -605 -488 0
-819 -606 -489 0
-817 -607 -490 0
-818 -608 -491 0
-819 -609 -492 0
-817 -610 -493 0
-818 -611 -494 0
-819 -612 -495 0
-817 -613 -496 0
-818 -614 -497 0
-819 -615 -498 0
-817 -616 -499 0
-818 -617 -500 0
-819 -618 -501 0
-817 -619 -502 0
-818 -620 -503 0
-819 -621 -504 0
-817 -622 -505 0
-818 -623 -506 0
-819 -624 -507 0
-817 -625 -508 0
-818 -626 -509 0
-819 -627 -510 0
-817 -628 -511 0
-818 -629 -512 0
-819 -630 -513 0
-817 -631 -514 0
-818 -632 -515 0
-819 -633 -516 0
-817 -634 -517 0
-818 -635 -518 0
-819 -636 -519 0
-817 -637 -520 0
-818 -638 -521 0
-819 -639 -522 0
-817 -640 -523 0
-818 -641 -524 0
-819 -642 -525 0
-817 -643 -526 0
-818 -644 -527 0
-819 -645 -528 0
-817 -646 -529 0
-818 -647 -530 0
-819 -648 -531 0
-817 -649 -532 0
-818 -650 -533 0
-819 -651 -534 0
-817 -652 -535 0
-818 -653 -536 0
-819 -654 -537 0
-817 -655 -538 0
-818 -656 -539 0
-819 -657 -540 0
-817 -658 -541 0
-818 -659 -542 0
-819 -660 -543 0
-817 -661 -544 0
-818 -662 -545 0
-819 -663 -546 0
-817 -664 -547 0
-818 -665 -548 0
-819 -666 -549 0
-817 -667 -550 0
-818 -668 -551 0
-819 -669 -552 0
-817 -670 -553 0
-818 -671 -554 0
-819 -672 -555 0
-817 -673 -556 0
-818 -674 -557 0
-819 -675 -558 0
-817 -676 -559 0
-818 -677 -560 0
-819 -678 -561 0
-817 -679 -562 0
-818 -680 -563 0
-819 -681 -564 0
-817 -682 -565 0
-818 -683 -566 0
-819 -684 -567 0
-817 -685 -568 0
-818 -686 -569 0
-819 -687 -570 0
-817 -688 -571 0
-818 -689 -572 0
-819 -690 -573 0
-817 -691 -574 0
-818 -692 -575 0
-819 -693 -576 0
-817 -694 -577 0
-818 -695 -578 0
-819 -696 -579 0
-817 -697 -580 0
-818 -698 -581 0
-819 -699 -582 0
-817 -700 -583 0
-818 -701 -584 0
-819 -702 -585 0
-817 -703 -586 0
-818 -704 -587 0
-819 -705 -588 0
-817 -706 -589 0
-818 -707 -590 0
-819 -708 -591 0
-817 -709 -592 0
-818 -710 -593 0
-819 -711 -594 0
-817 -712 -595 0
-818 -713 -596 0
-819 -714 -597 0
-817 -715 -598 0
-818 -716 -599 0
-819 -717 -600 0
-817 -718 -601 0
-818 -719 -602 0
-819 -720 -603 0
-817 -721 -604 0
-818 -722 -605 0
-819 -723 -606 0
-817 -724 -607 0
-818 -725 -608 0
-819 -726 -609 0
-817 -727 -610 0
-818 -728 -611 0
-819 -729 -612 0
-817 -730 -613 0
-818 -731 -614 0
-819 -732 -615 0
-817 -733 -616 0
-818 -734 -617 0
-819 -735 -618 0
-817 -736 -619 0
-818 -737 -620 0
-819 -738 -621 0
-817 -739 -622 0
-818 -740 -623 0
-819 -741 -624 0
-817 -742 -625 0
-818 -743 -626 0
-819 -744 -627 0
-817 -745 -628 0
-818 -746 -629 0
-819 -747 -630 0
-817 -748 -631 0
-818 -749 -632 0
-819 -750 -633 0
-817 -751 -634 0
-818 -752 -635 0
-819 -753 -636 0
-817 -754 -637 0
-818 -755 -638 0
-819 -756 -639 0
-817 -757 -640 0
-818 -758 -641 0
-819 -759 -642 0
-817 -760 -643 0
-818 -761 -644 0
-819 -762 -645 0
-817 -763 -646 0
-818 -764 -647 0
-819 -765 -648 0
-817 -766 -649 0
-818 -767 -650 0
-819 -768 -651 0
-817 -769 -652 0
-818 -770 -653 0
-819 -771 -654 0
-817 -772 -655 0
-818 -773 -656 0
-819 -774 -657 0
-817 -775 -658 0
-818 -776 -659 0
-819 -777 -660 0
-817 -778 -661 0
-818 -779 -662 0
-819 -780 -663 0
-817 -781 -664 0
-818 -782 -665 0
-819 -783 -666 0
-817 -784 -667 0
-818 -785 -668 0
-819 -786 -669 0
-817 -787 -670 0
-818 -788 -671 0
-819 -789 -672 0
-817 -790 -673 0
-818 -791 -674 0
-819 -792 -675 0
-817 -793 -676 0
-818 -794 -677 0
-819 -795 -678 0
-817 -796 -679 0
-818 -797 -680 0
-819 -798 -681 0
-817 -799 -682 0
-818 -800 -683 0
-819 -801 -684 0
-817 -802 -685 0
-818 -803 -686 0
-819 -804 -687 0
-817 -805 -688 0
-818 -806 -689 0
-819 -807 -690 0
-817 -808 -691 0
-818 -809 -692 0
-819 -810 -693 0
-817 -811 -694 0
-818 -812 -695 0
-819 -813 -696 0
-817 -814 -697 0
-818 -815 -698 0
-819 -816 -699 0
-817 -700 0
-818 -701 0
-819 -702 0
-820 -817 -703 0
-821 -818 -704 0
-822 -819 -705 0
-823 -817 -706 0
-824 -818 -707 0
-825 -819 -708 0
-826 -817 -709 0
-827 -818 -710 0
-828 -819 -711 0
-829 -817 -712 0
-830 -818 -713 0
-831 -819 -714 0
-832 -817 -715 0
-833 -818 -716 0
-834 -819 -717 0
-835 -817 -718 0
-836 -818 -719 0
-837 -819 -720 0
-838 -817 -721 0
-839 -818 -722 0
-840 -819 -723 0
-841 -817 -724 0
-842 -818 -725 0
-843 -819 -726 0
-844 -817 -727 0
-845 -818 -728 0
-846 -819 -729 0
-847 -817 -730 0
-848 -818 -731 0
-849 -819 -732 0
-850 -817 -733 0
-851 -818 -734 0
-852 -819 -735 0
-853 -817 -736 0
-854 -818 -737 0
-855 -819 -738 0
-856 -817 -739 0
-857 -818 -740 0
-858 -819 -741 0
-859 -817 -742 0
-860 -818 -743 0
-861 -819 -744 0
-862 -817 -745 0
-863 -818 -746 0
-864 -819 -747 0
-865 -817 -748 0
-866 -818 -749 0
-867 -819 -750 0
-868 -817 -751 0
-869 -818 -752 0
-870 -819 -753 0
-871 -817 -754 0
-872 -818 -755 0
-873 -819 -756 0
-874 -817 -757 0
-875 -818 -758 0
-876 -819 -759 0
-877 -817 -760 0
-878 -818 -761 0
-879 -819 -762 0
-880 -817 -763 0
-881 -818 -764 0
-882 -819 -765 0
-883 -817 -766 0
-884 -818 -767 0
-885 -819 -768 0
-886 -817 -769 0
-887 -818 -770 0
-888 -819 -771 0
-889 -817 -772 0
-890 -818 -773 0
-891 -819 -774 0
-892 -817 -775 0
-893 -818 -776 0
-894 -819 -777 0
-895 -817 -778 0
-896 -818 -779 0
-897 -819 -780 0
-898 -817 -781 0
-899 -818 -782 0
-900 -819 -783 0
-901 -817 -784 0
-902 -818 -785 0
-903 -819 -786 0
-904 -817 -787 0
-905 -818 -788 0
-906 -819 -789 0
-907 -817 -790 0
-908 -818 -791 0
-909 -819 -792 0
-910 -817 -793 0
-911 -818 -794 0
-912 -819 -795 0
-913 -817 -796 0
-914 -818 -797 0
-915 -819 -798 0
-916 -817 -799 0
-917 -818 -800 0
-918 -819 -801 0
-919 -817 -802 0
-920 -818 -803 0
-921 -819 -804 0
-922 -817 -805 0
-923 -818 -806 0
-924 -819 -807 0
-925 -817 -808 0
-926 -818 -809 0
-927 -819 -810 0
-928 -817 -811 0
-929 -818 -812 0
-930 -819 -813 0
-931 -817 -814 0
-932 -818 -815 0
-933 -819 -816 0
-934 -817 0
-935 -818 0
-936 -819 0
-937 -820 -817 0
-938 -821 -818 0
-939 -822 -819 0
-940 -823 -817 0
-941 -824 -818 0
-942 -825 -819 0
-943 -826 -817 0
-944 -827 -818 0
-945 -828 -819 0
-946 -829 -817 0
-947 -830 -818 0
-948 -831 -819 0
-949 -832 -817 0
-950 -833 -818 0
-951 -834 -819 0
-952 -835 -817 0
-953 -836 -818 0
-954 -837 -819 0
-955 -838 -817 0
-956 -839 -818 0
-957 -840 -819 0
-958 -841 -817 0
-959 -842 -818 0
-960 -843 -819 0
-961 -844 -817 0
-962 -845 -818 0
-963 -846 -819 0
-964 -847 -817 0
-965 -848 -818 0
-966 -849 -819 0
-967 -850 -817 0
-968 -851 -818 0
-969 -852 -819 0
-970 -853 -817 0
-971 -854 -818 0
-972 -855 -819 0
-973 -856 -817 0
-974 -857 -818 0
-975 -858 -819 0
-976 -859 -817 0
-977 -860 -818 0
-978 -861 -819 0
-979 -862 -817 0
-980 -863 -818 0
-981 -864 -819 0
-982 -865 -817 0
-983 -866 -818 0
-984 -867 -819 0
-985 -868 -817 0
-986 -869 -818 0
-987 -870 -819 0
-988 -871 -817 0
-989 -872 -818 0
-990 -873 -819 0
-991 -874 -817 0
-992 -875 -818 0
-993 -876 -819 0
-994 -877 -817 0
-995 -878 -818 0
-996 -879 -819 0
-997 -880 -817 0
-998 -881 -818 0
-999 -882 -819 0
-1000 -883 -817 0
-1001 -884 -818 0
-1002 -885 -819 0
-1003 -886 -817 0
-1004 -887 -818 0
-1005 -888 -819 0
-1006 -889 -817 0
-1007 -890 -818 0
-1008 -891 -819 0
-1009 -892 -817 0
-1010 -893 -818 0
-1011 -894 -819 0
-1012 -895 -817 0
-1013 -896 -818 0
-1014 -897 -819 0
-1015 -898 -817 0
-1016 -899 -818 0
-1017 -900 -819 0
-1018 -901 -817 0
-1019 -902 -818 0
-1020 -903 -819 0
-1021 -904 -817 0
-1022 -905 -818 0
-1023 -906 -819 0
-1024 -907 -817 0
-1025 -908 -818 0
-1026 -909 -819 0
-1027 -910 -817 0
-1028 -911 -818 0
-1029 -912 -819 0
-838 -121 -1 0
-839 -122 -2 0
-840 -123 -3 0
-838 -124 -4 0
-839 -125 -5 0
-840 -126 -6 0
-838 -127 -7 0
-839 -128 -8 0
-840 -129 -9 0
-838 -130 -10 0
-839 -131 -11 0
-840 -132 -12 0
-838 -133 -13 0
-839 -134 -14 0
-840 -135 -15 0
-838 -136 -16 0
-839 -137 -17 0
-840 -138 -18 0
-838 -139 -19 0
-839 -140 -20 0
-840 -141 -21 0
-838 -142 -22 0
-839 -143 -23 0
-840 -144 -24 0
-838 -145 -25 0
-839 -146 -26 0
-840 -147 -27 0
-838 -148 -28 0
-839 -149 -29 0
-840 -150 -30 0
-838 -151 -31 0
-839 -152 -32 0
-840 -153 -33 0
-838 -154 -34 0
-839 -155 -35 0
-840 -156 -36 0
-838 -157 -37 0
-839 -158 -38 0
-840 -159 -39 0
-838 -160 -40 0
-839 -161 -41 0
-840 -162 -42 0
-838 -163 -43 0
-839 -164 -44 0
-840 -165 -45 0
-838 -166 -46 0
-839 -167 -47 0
-840 -168 -48 0
-838 -169 -49 0
-839 -170 -50 0
-840 -171 -51 0
-838 -172 -52 0
-839 -173 -53 0
-840 -174 -54 0
-838 -175 -55 0
-839 -176 -56 0
-840 -177 -57 0
-838 -178 -58 0
-839 -179 -59 0
-840 -180 -60 0
-838 -181 -61 0
-839 -182 -62 0
-840 -183 -63 0
-838 -184 -64 0
-839 -185 -65 0
-840 -186 -66 0
-838 -187 -67 0
-839 -188 -68 0
-840 -189 -69 0
-838 -190 -70 0
-839 -191 -71 0
-840 -192 -72 0
-838 -193 -73 0
-839 -194 -74 0
-840 -195 -75 0
-838 -196 -76 0
-839 -197 -77 0
-840 -198 -78 0
-838 -199 -79 0
-839 -200 -80 0
-840 -201 -81 0
-838 -202 -82 0
-839 -203 -83 0
-840 -204 -84 0
-838 -205 -85 0
-839 -206 -86 0
-840 -207 -87 0
-838 -208 -88 0
-839 -209 -89 0
-840 -210 -90 0
-838 -211 -91 0
-839 -212 -92 0
-840 -213 -93 0
-838 -214 -94 0
-839 -215 -95 0
-840 -216 -96 0
-838 -217 -97 0
-839 -218 -98 0
-840 -219 -99 0
-838 -220 -100 0
-839 -221 -101 0
-840 -222 -102 0
-838 -223 -103 0
-839 -224 -104 0
-840 -225 -105 0
-838 -226 -106 0
-839 -227 -107 0
-840 -228 -108 0
-838 -229 -109 0
-839 -230 -110 0
-840 -231 -111 0
-838 -232 -112 0
-839 -233 -113 0
-840 -234 -114 0
-838 -235 -115 0
-839 -236 -116 0
-840 -237 -117 0
-838 -238 -118 0
-839 -239 -119 0
-840 -240 -120 0
-838 -241 -121 0
-839 -242 -122 0
-840 -243 -123 0
-838 -244 -124 0
-839 -245 -125 0
-840 -246 -126 0
-838 -247 -127 0
-839 -248 -128 0
-840 -249 -129 0
-838 -250 -130 0
-839 -251 -131 0
-840 -252 -132 0
-838 -253 -133 0
-839 -254 -134 0
-840 -255 -135 0
-838 -256 -136 0
-839 -257 -137 0
-840 -258 -138 0
-838 -259 -139 0
-839 -260 -140 0
-840 -261 -141 0
-838 -262 -142 0
-839 -263 -143 0
-840 -264 -144 0
-838 -265 -145 0
-839 -266 -146 0
-840 -267 -147 0
-838 -268 -148 0
-839 -269 -149 0
-840 -270 -150 0
-838 -271 -151 0
-839 -272 -152 0
-840 -273 -153 0
-838 -274 -154 0
-839 -275 -155 0
-840 -276 -156 0
-838 -277 -157 0
-839 -278 -158 0
-840 -279 -159 0
-838 -280 -160 0
-839 -281 -161 0
-840 -282 -162 0
-838 -283 -163 0
-839 -284 -164 0
-840 -285 -165 0
-838 -286 -166 0
-839 -287 -167 0
-840 -288 -168 0
-838 -289 -169 0
-839 -290 -170 0
-840 -291 -171 0
-838 -292 -172 0
-839 -293 -173 0
-840 -294 -174 0
-838 -295 -175 0
-839 -296 -176 0
-840 -297 -177 0
-838 -298 -178 0
-839 -299 -179 0
-840 -300 -180 0
-838 -301 -181 0
-839 -302 -182 0
-840 -303 -183 0
-838 -304 -184 0
-839 -305 -185 0
-840 -306 -186 0
-838 -307 -187 0
-839 -308 -188 0
-840 -309 -189 0
-838 -310 -190 0
-839 -311 -191 0
-840 -312 -192 0
-838 -313 -193 0
-839 -314 -194 0
-840 -315 -195 0
-838 -316 -196 0
-839 -317 -197 0
-840 -318 -198 0
-838 -319 -199 0
-839 -320 -200 0
-840 -321 -201 0
-838 -322 -202 0
-839 -323 -203 0
-840 -324 -204 0
-838 -325 -205 0
-839 -326 -206 0
-840 -327 -207 0
-838 -328 -208 0
-839 -329 -209 0
-840 -330 -210 0
-838 -331 -211 0
-839 -332 -212 0
-840 -333 -213 0
-838 -334 -214 0
-839 -335 -215 0
-840 -336 -216 0
-838 -337 -217 0
-839 -338 -218 0
-840 -339 -219 0
-838 -340 -220 0
-839 -341 -221 0
-840 -342 -222 0
-838 -343 -223 0
-839 -344 -224 0
-840 -345 -225 0
-838 -346 -226 0
-839 -347 -227 0
-840 -348 -228 0
-838 -349 -229 0
-839 -350 -230 0
-840 -351 -231 0
-838 -352 -232 0
-839 -353 -233 0
-840 -354 -234 0
-838 -355 -235 0
-839 -356 -236 0
-840 -357 -237 0
-838 -358 -238 0
-839 -359 -239 0
-840 -360 -240 0
-838 -361 -241 0
-839 -362 -242 0
-840 -363 -243 0
-838 -364 -244 0
-839 -365 -245 0
-840 -366 -246 0
-838 -367 -247 0
-839 -368 -248 0
-840 -369 -249 0
-838 -370 -250 0
-839 -371 -251 0
-840 -372 -252 0
-838 -373 -253 0
-839 -374 -254 0
-840 -375 -255 0
-838 -376 -256 0
-839 -377 -257 0
-840 -378 -258 0
-838 -379 -259 0
-839 -380 -260 0
-840 -381 -261 0
-838 -382 -262 0
-839 -383 -263 0
-840 -384 -264 0
-838 -385 -265 0
-839 -386 -266 0
-840 -387 -267 0
-838 -388 -268 0
-839 -389 -269 0
-840 -390 -270 0
-838 -391 -271 0
-839 -392 -272 0
-840 -393 -273 0
-838 -394 -274 0
-839 -395 -275 0
-840 -396 -276 0
-838 -397 -277 0
-839 -398 -278 0
-840 -399 -279 0
-838 -400 -280 0
-839 -401 -281 0
-840 -402 -282 0
-838 -403 -283 0
-839 -404 -284 0
-840 -405 -285 0
-838 -406 -286 0
-839 -407 -287 0
-840 -408 -288 0
-838 -409 -289 0
-839 -410 -290 0
-840 -411 -291 0
-838 -412 -292 0
-839 -413 -293 0
-840 -414 -294 0
-838 -415 -295 0
-839 -416 -296 0
-840 -417 -297 0
-838 -418 -298 0
-839 -419 -299 0
-840 -420 -300 0
-838 -421 -301 0
-839 -422 -302 0
-840 -423 -303 0
-838 -424 -304 0
-839 -425 -305 0
-840 -426 -306 0
-838 -427 -307 0
-839 -428 -308 0
-840 -429 -309 0
-838 -430 -310 0
-839 -431 -311 0
-840 -432 -312 0
-838 -433 -313 0
-839 -434 -314 0
-840 -435 -315 0
-838 -436 -316 0
-839 -437 -317 0
-840 -438 -318 0
-838 -439 -319 0
-839 -440 -320 0
-840 -441 -321 0
-838 -442 -322 0
-839 -443 -323 0
-840 -444 -324 0
-838 -445 -325 0
-839 -446 -326 0
-840 -447 -327 0
-838 -448 -328 0
-839 -449 -329 0
-840 -450 -330 0
-838 -451 -331 0
-839 -452 -332 0
-840 -453 -333 0
-838 -454 -334 0
-839 -455 -335 0
-840 -456 -336 0
-838 -457 -337 0
-839 -458 -338 0
-840 -459 -339 0
-838 -460 -340 0
-839 -461 -341 0
-840 -462 -342 0
-838 -463 -343 0
-839 -464 -344 0
-840 -465 -345 0
-838 -466 -346 0
-839 -467 -347 0
-840 -468 -348 0
-838 -469 -349 0
-839 -470 -350 0
-840 -471 -351 0
-838 -472 -352 0
-839 -473 -353 0
-840 -474 -354 0
-838 -475 -355 0
-839 -476 -356 0
-840 -477 -357 0
-838 -478 -358 0
-839 -479 -359 0
-840 -480 -360 0
-838 -481 -361 0
-839 -482 -362 0
-840 -483 -363 0
-838 -484 -364 0
-839 -485 -365 0
-840 -486 -366 0
-838 -487 -367 0
-839 -488 -368 0
-840 -489 -369 0
-838 -490 -370 0
-839 -491 -371 0
-840 -492 -372 0
-838 -493 -373 0
-839 -494 -374 0
-840 -495 -375 0
-838 -496 -376 0
-839 -497 -377 0
-840 -498 -378 0
-838 -499 -379 0
-839 -500 -380 0
-840 -501 -381 0
-838 -502 -382 0
-839 -503 -383 0
-840 -504 -384 0
-838 -505 -385 0
-839 -506 -386 0
-840 -507 -387 0
-838 -508 -388 0
-839 -509 -389 0
-840 -510 -390 0
-838 -511 -391 0
-839 -512 -392 0
-840 -513 -393 0
-838 -514 -394 0
-839 -515 -395 0
-840 -516 -396 0
-838 -517 -397 0
-839 -518 -398 0
-840 -519 -399 0
-838 -520 -400 0
-839 -521 -401 0
-840 -522 -402 0
-838 -523 -403 0
-839 -524 -404 0
-840 -525 -405 0
-838 -526 -406 0
-839 -527 -407 0
-840 -528 -408 0
-838 -529 -409 0
-839 -530 -410 0
-840 -531 -411 0
-838 -532 -412 0
-839 -533 -413 0
-840 -534 -414 0
-838 -535 -415 0
-839 -536 -416 0
-840 -537 -417 0
-838 -538 -418 0
-839 -539 -419 0
-840 -540 -420 0
-838 -541 -421 0
-839 -542 -422 0
-840 -543 -423 0
-838 -544 -424 0
-839 -545 -425 0
-840 -546 -426 0
-838 -547 -427 0
-839 -548 -428 0
-840 -549 -429 0
-838 -550 -430 0
-839 -551 -431 0
-840 -552 -432 0
-838 -553 -433 0
-839 -554 -434 0
-840 -555 -435 0
-838 -556 -436 0
-839 -557 -437 0
-840 -558 -438 0
-838 -559 -439 0
-839 -560 -440 0
-840 -561 -441 0
-838 -562 -442 0
-839 -563 -443 0
-840 -564 -444 0
-838 -565 -445 0
-839 -566 -446 0
-840 -567 -447 0
-838 -568 -448 0
-839 -569 -449 0
-840 -570 -450 0
-838 -571 -451 0
-839 -572 -452 0
-840 -573 -453 0
-838 -574 -454 0
-839 -575 -455 0
-840 -576 -456 0
-838 -577 -457 0
-839 -578 -458 0
-840 -579 -459 0
-838 -580 -460 0
-839 -581 -461 0
-840 -582 -462 0
-838 -583 -463 0
-839 -584 -464 0
-840 -585 -465 0
-838 -586 -466 0
-839 -587 -467 0
-840 -588 -468 0
-838 -589 -469 0
-839 -590 -470 0
-840 -591 -471 0
-838 -592 -472 0
-839 -593 -473 0
-840 -594 -474 0
-838 -595 -475 0
-839 -596 -476 0
-840 -597 -477 0
-838 -598 -478 0
-839 -599 -479 0
-840 -600 -480 0
-838 -601 -481 0
-839 -602 -482 0
-840 -603 -483 0
-838 -604 -484 0
-839 -605 -485 0
-840 -606 -486 0
-838 -607 -487 0
-839 -608 -488 0
-840 -609 -489 0
-838 -610 -490 0
-839 -611 -491 0
-840 -612 -492 0
-838 -613 -493 0
-839 -614 -494 0
-840 -615 -495 0
-838 -616 -496 0
-839 -617 -497 0
-840 -618 -498 0
-838 -619 -499 0
-839 -620 -500 0
-840 -621 -501 0
-838 -622 -502 0
-839 -623 -503 0
-840 -624 -504 0
-838 -625 -505 0
-839 -626 -506 0
-840 -627 -507 0
-838 -628 -508 0
-839 -629 -509 0
-840 -630 -510 0
-838 -631 -511 0
-839 -632 -512 0
-840 -633 -513 0
-838 -634 -514 0
-839 -635 -515 0
-840 -636 -516 0
-838 -637 -517 0
-839 -638 -518 0
-840 -639 -519 0
-838 -640 -520 0
-839 -641 -521 0
-840 -642 -522 0
-838 -643 -523 0
-839 -644 -524 0
-840 -645 -525 0
-838 -646 -526 0
-839 -647 -527 0
-840 -648 -528 0
-838 -649 -529 0
-839 -650 -530 0
-840 -651 -531 0
-838 -652 -532 0
-839 -653 -533 0
-840 -654 -534 0
-838 -655 -535 0
-839 -656 -536 0
-840 -657 -537 0
-838 -658 -538 0
-839 -659 -539 0
-840 -660 -540 0
-838 -661 -541 0
-839 -662 -542 0
-840 -663 -543 0
-838 -664 -544 0
-839 -665 -545 0
-840 -666 -546 0
-838 -667 -547 0
-839 -668 -548 0
-840 -669 -549 0
-838 -670 -550 0
-839 -671 -551 0
-840 -672 -552 0
-838 -673 -553 0
-839 -674 -554 0
-840 -675 -555 0
-838 -676 -556 0
-839 -677 -557 0
-840 -678 -558 0
-838 -679 -559 0
-839 -680 -560 0
-840 -681 -561 0
-838 -682 -562 0
-839 -683 -563 0
-840 -684 -564 0
-838 -685 -565 0
-839 -686 -566 0
-840 -687 -567 0
-838 -688 -568 0
-839 -689 -569 0
-840 -690 -570 0
-838 -691 -571 0
-839 -692 -572 0
-840 -693 -573 0
-838 -694 -574 0
-839 -695 -575 0
-840 -696 -576 0
-838 -697 -577 0
-839 -698 -578 0
-840 -699 -579 0
-838 -700 -580 0
-839 -701 -581 0
-840 -702 -582 0
-838 -703 -583 0
-839 -704 -584 0
-840 -705 -585 0
-838 -706 -586 0
-839 -707 -587 0
-840 -708 -588 0
-838 -709 -589 0
-839 -710 -590 0
-840 -711 -591 0
-838 -712 -592 0
-839 -713 -593 0
-840 -714 -594 0
-838 -715 -595 0
-839 -716 -596 0
-840 -717 -597 0
-838 -718 -598 0
-839 -719 -599 0
-840 -720 -600 0
-838 -721 -601 0
-839 -722 -602 0
-840 -723 -603 0
-838 -724 -604 0
-839 -725 -605 0
-840 -726 -606 0
-838 -727 -607 0
-839 -728 -608 0
-840 -729 -609 0
-838 -730 -610 0
-839 -731 -611 0
-840 -732 -612 0
-838 -733 -613 0
-839 -734 -614 0
-840 -735 -615 0
-838 -736 -616 0
-839 -737 -617 0
-840 -738 -618 0
-838 -739 -619 0
-839 -740 -620 0
-840 -741 -621 0
-838 -742 -622 0
-839 -743 -623 0
-840 -744 -624 0
-838 -745 -625 0
-839 -746 -626 0
-840 -747 -627 0
-838 -748 -628 0
-839 -749 -629 0
-840 -750 -630 0
-838 -751 -631 0
-839 -752 -632 0
-840 -753 -633 0
-838 -754 -634 0
-839 -755 -635 0
-840 -756 -636 0
-838 -757 -637 0
-839 -758 -638 0
-840 -759 -639 0
-838 -760 -640 0
-839 -761 -641 0
-840 -762 -642 0
-838 -763 -643 0
-839 -764 -644 0
-840 -765 -645 0
-838 -766 -646 0
-839 -767 -647 0
-840 -768 -648 0
-838 -769 -649 0
-839 -770 -650 0
-840 -771 -651 0
-838 -772 -652 0
-839 -773 -653 0
-840 -774 -654 0
-838 -775 -655 0
-839 -776 -656 0
-840 -777 -657 0
-838 -778 -658 0
-839 -779 -659 0
-840 -780 -660 0
-838 -781 -661 0
-839 -782 -662 0
-840 -783 -663 0
-838 -784 -664 0
-839 -785 -665 0
-840 -786 -666 0
-838 -787 -667 0
-839 -788 -668 0
-840 -789 -669 0
-838 -790 -670 0
-839 -791 -671 0
-840 -792 -672 0
-838 -793 -673 0
-839 -794 -674 0
-840 -795 -675 0
-838 -796 -676 0
-839 -797 -677 0
-840 -798 -678 0
-838 -799 -679 0
-839 -800 -680 0
-840 -801 -681 0
-838 -802 -682 0
-839 -803 -683 0
-840 -804 -684 0
-838 -805 -685 0
-839 -806 -686 0
-840 -807 -687 0
-838 -808 -688 0
-839 -809 -689 0
-840 -810 -690 0
-838 -811 -691 0
-839 -812 -692 0
-840 -813 -693 0
-838 -814 -694 0
-839 -815 -695 0
-840 -816 -696 0
-838 -817 -697 0
-839 -818 -698 0
-840 -819 -699 0
-838 -820 -700 0
-839 -821 -701 0
-840 -822 -702 0
-838 -823 -703 0
-839 -824 -704 0
-840 -825 -705 0
-838 -826 -706 0
-839 -827 -707 0
-840 -828 -708 0
-838 -829 -709 0
-839 -830 -710 0
-840 -831 -711 0
-838 -832 -712 0
-839 -833 -713 0
-840 -834 -714 0
-838 -835 -715 0
-839 -836 -716 0
-840 -837 -717 0
-838 -718 0
-839 -719 0
-840 -720 0
-841 -838 -721 0
-842 -839 -722 0
-843 -840 -723 0
-844 -838 -724 0
-845 -839 -725 0
-846 -840 -726 0
-847 -838 -727 0
-848 -839 -728 0
-849 -840 -729 0
-850 -838 -730 0
-851 -839 -731 0
-852 -840 -732 0
-853 -838 -733 0
-854 -839 -734 0
-855 -840 -735 0
-856 -838 -736 0
-857 -839 -737 0
-858 -840 -738 0
-859 -838 -739 0
-860 -839 -740 0
-861 -840 -741 0
-862 -838 -742 0
-863 -839 -743 0
-864 -840 -744 0
-865 -838 -745 0
-866 -839 -746 0
-867 -840 -747 0
-868 -838 -748 0
-869 -839 -749 0
-870 -840 -750 0
-871 -838 -751 0
-872 -839 -752 0
-873 -840 -753 0
-874 -838 -754 0
-875 -839 -755 0
-876 -840 -756 0
-877 -838 -757 0
-878 -839 -758 0
-879 -840 -759 0
-880 -838 -760 0
-881 -839 -761 0
-882 -840 -762 0
-883 -838 -763 0
-884 -839 -764 0
-885 -840 -765 0
-886 -838 -766 0
-887 -839 -767 0
-888 -840 -768 0
-889 -838 -769 0
-890 -839 -770 0
-891 -840 -771 0
-892 -838 -772 0
-893 -839 -773 0
-894 -840 -774 0
-895 -838 -775 0
-896 -839 -776 0
-897 -840 -777 0
-898 -838 -778 0
-899 -839 -779 0
-900 -840 -780 0
-901 -838 -781 0
-902 -839 -782 0
-903 -840 -783 0
-904 -838 -784 0
-905 -839 -785 0
-906 -840 -786 0
-907 -838 -787 0
-908 -839 -788 0
-909 -840 -789 0
-910 -838 -790 0
-911 -839 -791 0
-912 -840 -792 0
-913 -838 -793 0
-914 -839 -794 0
-915 -840 -795 0
-916 -838 -796 0
-917 -839 -797 0
-918 -840 -798 0
-919 -838 -799 0
-920 -839 -800 0
-921 -840 -801 0
-922 -838 -802 0
-923 -839 -803 0
-924 -840 -804 0
-925 -838 -805 0
-926 -839 -806 0
-927 -840 -807 0
-928 -838 -808 0
-929 -839 -809 0
-930 -840 -810 0
-931 -838 -811 0
-932 -839 -812 0
-933 -840 -813 0
-934 -838 -814 0
-935 -839 -815 0
-936 -840 -816 0
-937 -838 -817 0
-938 -839 -818 0
-939 -840 -819 0
-940 -838 -820 0
-941 -839 -821 0
-942 -840 -822 0
-943 -838 -823 0
-944 -839 -824 0
-945 -840 -825 0
-946 -838 -826 0
-947 -839 -827 0
-948 -840 -828 0
-949 -838 -829 0
-950 -839 -830 0
-951 -840 -831 0
-952 -838 -832 0
-953 -839 -833 0
-954 -840 -834 0
-955 -838 -835 0
-956 -839 -836 0
-957 -840 -837 0
-958 -838 0
-959 -839 0
-960 -840 0
-961 -841 -838 0
-962 -842 -839 0
-963 -843 -840 0
-964 -844 -838 0
-965 -845 -839 0
-966 -846 -840 0
-967 -847 -838 0
-968 -848 -839 0
-969 -849 -840 0
-970 -850 -838 0
-971 -851 -839 0
-972 -852 -840 0
-973 -853 -838 0
-974 -854 -839 0
-975 -855 -840 0
-976 -856 -838 0
-977 -857 -839 0
-978 -858 -840 0
-979 -859 -838 0
-980 -860 -839 0
-981 -861 -840 0
-982 -862 -838 0
-983 -863 -839 0
-984 -864 -840 0
-985 -865 -838 0
-986 -866 -839 0
-987 -867 -840 0
-988 -868 -838 0
-989 -869 -839 0
-990 -870 -840 0
-991 -871 -838 0
-992 -872 -839 0
-993 -873 -840 0
-994 -874 -838 0
-995 -875 -839 0
-996 -876 -840 0
-997 -877 -838 0
-998 -878 -839 0
-999 -879 -840 0
-1000 -880 -838 0
-1001 -881 -839 0
-1002 -882 -840 0
-1003 -883 -838 0
-1004 -884 -839 0
-1005 -885 -840 0
-1006 -886 -838 0
-1007 -887 -839 0
-1008 -888 -840 0
-1009 -889 -838 0
-1010 -890 -839 0
-1011 -891 -840 0
-1012 -892 -838 0
-1013 -893 -839 0
-1014 -894 -840 0
-1015 -895 -838 0
-1016 -896 -839 0
-1017 -897 -840 0
-1018 -898 -838 0
-1019 -899 -839 0
-1020 -900 -840 0
-1021 -901 -838 0
-1022 -902 -839 0
-1023 -903 -840 0
-1024 -904 -838 0
-1025 -905 -839 0
-1026 -906 -840 0
-1027 -907 -838 0
-1028 -908 -839 0
-1029 -909 -840 0
-859 -124 -1 0
-860 -125 -2 0
-861 -126 -3 0
-859 -127 -4 0
-860 -128 -5 0
-861 -129 -6 0
-859 -130 -7 0
-860 -131 -8 0
-861 -132 -9 0
-859 -133 -10 0
-860 -134 -11 0
-861 -135 -12 0
-859 -136 -13 0
-860 -137 -14 0
-861 -138 -15 0
-859 -139 -16 0
-860 -140 -17 0
-861 -141 -18 0
-859 -142 -19 0
-860 -143 -20 0
-861 -144 -21 0
-859 -145 -22 0
-860 -146 -23 0
-861 -147 -24 0
-859 -148 -25 0
-860 -149 -26 0
-861 -150 -27 0
-859 -151 -28 0
-860 -152 -29 0
-861 -153 -30 0
-859 -154 -31 0
-860 -155 -32 0
-861 -156 -33 0
-859 -157 -34 0
-860 -158 -35 0
-861 -159 -36 0
-859 -160 -37 0
-860 -161 -38 0
-861 -162 -39 0
-859 -163 -40 0
-860 -164 -41 0
-861 -165 -42 0
-859 -166 -43 0
-860 -167 -44 0
-861 -168 -45 0
-859 -169 -46 0
-860 -170 -47 0
-861 -171 -48 0
-859 -172 -49 0
-860 -173 -50 0
-861 -174 -51 0
-859 -175 -52 0
-860 -176 -53 0
-861 -177 -54 0
-859 -178 -55 0
-860 -179 -56 0
-861 -180 -57 0
-859 -181 -58 0
-860 -182 -59 0
-861 -183 -60 0
-859 -184 -61 0
-860 -185 -62 0
-861 -186 -63 0
-859 -187 -64 0
-860 -188 -65 0
-861 -189 -66 0
-859 -190 -67 0
-860 -191 -68 0
-861 -192 -69 0
-859 -193 -70 0
-860 -194 -71 0
-861 -195 -72 0
-859 -196 -73 0
-860 -197 -74 0
-861 -198 -75 0
-859 -199 -76 0
-860 -200 -77 0
-861 -201 -78 0
-859 -202 -79 0
-860 -203 -80 0
-861 -204 -81 0
-859 -205 -82 0
-860 -206 -83 0
-861 -207 -84 0
-859 -208 -85 0
-860 -209 -86 0
-861 -210 -87 0
-859 -211 -88 0
-860 -212 -89 0
-861 -213 -90 0
-859 -214 -91 0
-860 -215 -92 0
-861 -216 -93 0
-859 -217 -94 0
-860 -218 -95 0
-861 -219 -96 0
-859 -220 -97 0
-860 -221 -98 0
-861 -222 -99 0
-859 -223 -100 0
-860 -224 -101 0
-861 -225 -102 0
-859 -226 -103 0
-860 -227 -104 0
-861 -228 -105 0
-859 -229 -106 0
-860 -230 -107 0
-861 -231 -108 0
-859 -232 -109 0
-860 -233 -110 0
-861 -234 -111 0
-859 -235 -112 0
-860 -236 -113 0
-861 -237 -114 0
-859 -238 -115 0
-860 -239 -116 0
-861 -240 -117 0
-859 -241 -118 0
-860 -242 -119 0
-861 -243 -120 0
-859 -244 -121 0
-860 -245 -122 0
-861 -246 -123 0
-859 -247 -124 0
-860 -248 -125 0
-861 -249 -126 0
-859 -250 -127 0
-860 -251 -128 0
-861 -252 -129 0
-859 -253 -130 0
-860 -254 -131 0
-861 -255 -132 0
-859 -256 -133 0
-860 -257 -134 0
-861 -258 -135 0
-859 -259 -136 0
-860 -260 -137 0
-861 -261 -138 0
-859 -262 -139 0
-860 -263 -140 0
-861 -264 -141 0
-859 -265 -142 0
-860 -266 -143 0
-861 -267 -144 0
-859 -268 -145 0
-860 -269 -146 0
-861 -270 -147 0
-859 -271 -148 0
-860 -272 -149 0
-861 -273 -150 0
-859 -274 -151 0
-860 -275 -152 0
-861 -276 -153 0
-859 -277 -154 0
-860 -278 -155 0
-861 -279 -156 0
-859 -280 -157 0
-860 -281 -158 0
-861 -282 -159 0
-859 -283 -160 0
-860 -284 -161 0
-861 -285 -162 0
-859 -286 -163 0
-860 -287 -164 0
-861 -288 -165 0
-859 -289 -166 0
-860 -290 -167 0
-861 -291 -168 0
-859 -292 -169 0
-860 -293 -170 0
-861 -294 -171 0
-859 -295 -172 0
-860 -296 -173 0
-861 -297 -174 0
-859 -298 -175 0
-860 -299 -176 0
-861 -300 -177 0
-859 -301 -178 0
-860 -302 -179 0
-861 -303 -180 0
-859 -304 -181 0
-860 -305 -182 0
-861 -306 -183 0
-859 -307 -184 0
-860 -308 -185 0
-861 -309 -186 0
-859 -310 -187 0
-860 -311 -188 0
-861 -312 -189 0
-859 -313 -190 0
-860 -314 -191 0
-861 -315 -192 0
-859 -316 -193 0
-860 -317 -194 0
-861 -318 -195 0
-859 -319 -196 0
-860 -320 -197 0
-861 -321 -198 0
-859 -322 -199 0
-860 -323 -200 0
-861 -324 -201 0
-859 -325 -202 0
-860 -326 -203 0
-861 -327 -204 0
-859 -328 -205 0
-860 -329 -206 0
-861 -330 -207 0
-859 -331 -208 0
-860 -332 -209 0
-861 -333 -210 0
-859 -334 -211 0
-860 -335 -212 0
-861 -336 -213 0
-859 -337 -214 0
-860 -338 -215 0
-861 -339 -216 0
-859 -340 -217 0
-860 -341 -218 0
-861 -342 -219 0
-859 -343 -220 0
-860 -344 -221 0
-861 -345 -222 0
-859 -346 -223 0
-860 -347 -224 0
-861 -348 -225 0
-859 -349 -226 0
-860 -350 -227 0
-861 -351 -228 0
-859 -352 -229 0
-860 -353 -230 0
-861 -354 -231 0
-859 -355 -232 0
-860 -356 -233 0
-861 -357 -234 0
-859 -358 -235 0
-860 -359 -236 0
-861 -360 -237 0
-859 -361 -238 0
-860 -362 -239 0
-861 -363 -240 0
-859 -364 -241 0
-860 -365 -242 0
-861 -366 -243 0
-859 -367 -244 0
-860 -368 -245 0
-861 -369 -246 0
-859 -370 -247 0
-860 -371 -248 0
-861 -372 -249 0
-859 -373 -250 0
-860 -374 -251 0
-861 -375 -252 0
-859 -376 -253 0
-860 -377 -254 0
-861 -378 -255 0
-859 -379 -256 0
-860 -380 -257 0
-861 -381 -258 0
-859 -382 -259 0
-860 -383 -260 0
-861 -384 -261 0
-859 -385 -262 0
-860 -386 -263 0
-861 -387 -264 0
-859 -388 -265 0
-860 -389 -266 0
-861 -390 -267 0
-859 -391 -268 0
-860 -392 -269 0
-861 -393 -270 0
-859 -394 -271 0
-860 -395 -272 0
-861 -396 -273 0
-859 -397 -274 0
-860 -398 -275 0
-861 -399 -276 0
-859 -400 -277 0
-860 -401 -278 0
-861 -402 -279 0
-859 -403 -280 0
-860 -404 -281 0
-861 -405 -282 0
-859 -406 -283 0
-860 -407 -284 0
-861 -408 -285 0
-859 -409 -286 0
-860 -410 -287 0
-861 -411 -288 0
-859 -412 -289 0
-860 -413 -290 0
-861 -414 -291 0
-859 -415 -292 0
-860 -416 -293 0
-861 -417 -294 0
-859 -418 -295 0
-860 -419 -296 0
-861 -420 -297 0
-859 -421 -298 0
-860 -422 -299 0
-861 -423 -300 0
-859 -424 -301 0
-860 -425 -302 0
-861 -426 -303 0
-859 -427 -304 0
-860 -428 -305 0
-861 -429 -306 0
-859 -430 -307 0
-860 -431 -308 0
-861 -432 -309 0
-859 -433 -310 0
-860 -434 -311 0
-861 -435 -312 0
-859 -436 -313 0
-860 -437 -314 0
-861 -438 -315 0
-859 -439 -316 0
-860 -440 -317 0
-861 -441 -318 0
-859 -442 -319 0
-860 -443 -320 0
-861 -444 -321 0
-859 -445 -322 0
-860 -446 -323 0
-861 -447 -324 0
-859 -448 -325 0
-860 -449 -326 0
-861 -450 -327 0
-859 -451 -328 0
-860 -452 -329 0
-861 -453 -330 0
-859 -454 -331 0
-860 -455 -332 0
-861 -456 -333 0
-859 -457 -334 0
-860 -458 -335 0
-861 -459 -336 0
-859 -460 -337 0
-860 -461 -338 0
-861 -462 -339 0
-859 -463 -340 0
-860 -464 -341 0
-861 -465 -342 0
-859 -466 -343 0
-860 -467 -344 0
-861 -468 -345 0
-859 -469 -346 0
-860 -470 -347 0
-861 -471 -348 0
-859 -472 -349 0
-860 -473 -350 0
-861 -474 -351 0
-859 -475 -352 0
-860 -476 -353 0
-861 -477 -354 0
-859 -478 -355 0
-860 -479 -356 0
-861 -480 -357 0
-859 -481 -358 0
-860 -482 -359 0
-861 -483 -360 0
-859 -484 -361 0
-860 -485 -362 0
-861 -486 -363 0
-859 -487 -364 0
-860 -488 -365 0
-861 -489 -366 0
-859 -490 -367 0
-860 -491 -368 0
-861 -492 -369 0
-859 -493 -370 0
-860 -494 -371 0
-861 -495 -372 0
-859 -496 -373 0
-860 -497 -374 0
-861 -498 -375 0
-859 -499 -376 0
-860 -500 -377 0
-861 -501 -378 0
-859 -502 -379 0
-860 -503 -380 0
-861 -504 -381 0
-859 -505 -382 0
-860 -506 -383 0
-861 -507 -384 0
-859 -508 -385 0
-860 -509 -386 0
-861 -510 -387 0
-859 -511 -388 0
-860 -512 -389 0
-861 -513 -390 0
-859 -514 -391 0
-860 -515 -392 0
-861 -516 -393 0
-859 -517 -394 0
-860 -518 -395 0
-861 -519 -396 0
-859 -520 -397 0
-860 -521 -398 0
-861 -522 -399 0
-859 -523 -400 0
-860 -524 -401 0
-861 -525 -402 0
-859 -526 -403 0
-860 -527 -404 0
-861 -528 -405 0
-859 -529 -406 0
-860 -530 -407 0
-861 -531 -408 0
-859 -532 -409 0
-860 -533 -410 0
-861 -534 -411 0
-859 -535 -412 0
-860 -536 -413 0
-861 -537 -414 0
-859 -538 -415 0
-860 -539 -416 0
-861 -540 -417 0
-859 -541 -418 0
-860 -542 -419 0
-861 -543 -420 0
-859 -544 -421 0
-860 -545 -422 0
-861 -546 -423 0
-859 -547 -424 0
-860 -548 -425 0
-861 -549 -426 0
-859 -550 -427 0
-860 -551 -428 0
-861 -552 -429 0
-859 -553 -430 0
-860 -554 -431 0
-861 -555 -432 0
-859 -556 -433 0
-860 -557 -434 0
-861 -558 -435 0
-859 -559 -436 0
-860 -560 -437 0
-861 -561 -438 0
-859 -562 -439 0
-860 -563 -440 0
-861 -564 -441 0
-859 -565 -442 0
-860 -566 -443 0
-861 -567 -444 0
-859 -568 -445 0
-860 -569 -446 0
-861 -570 -447 0
-859 -571 -448 0
-860 -572 -449 0
-861 -573 -450 0
-859 -574 -451 0
-860 -575 -452 0
-861 -576 -453 0
-859 -577 -454 0
-860 -578 -455 0
-861 -579 -456 0
-859 -580 -457 0
-860 -581 -458 0
-861 -582 -459 0
-859 -583 -460 0
-860 -584 -461 0
-861 -585 -462 0
-859 -586 -463 0
-860 -587 -464 0
-861 -588 -465 0
-859 -589 -466 0
-860 -590 -467 0
-861 -591 -468 0
-859 -592 -469 0
-860 -593 -470 0
-861 -594 -471 0
-859 -595 -472 0
-860 -596 -473 0
-861 -597 -474 0
-859 -598 -475 0
-860 -599 -476 0
-861 -600 -477 0
-859 -601 -478 0
-860 -602 -479 0
-861 -603 -480 0
-859 -604 -481 0
-860 -605 -482 0
-861 -606 -483 0
-859 -607 -484 0
-860 -608 -485 0
-861 -609 -486 0
-859 -610 -487 0
-860 -611 -488 0
-861 -612 -489 0
-859 -613 -490 0
-860 -614 -491 0
-861 -615 -492 0
-859 -616 -493 0
-860 -617 -494 0
-861 -618 -495 0
-859 -619 -496 0
-860 -620 -497 0
-861 -621 -498 0
-859 -622 -499 0
-860 -623 -500 0
-861 -624 -501 0
-859 -625 -502 0
-860 -626 -503 0
-861 -627 -504 0
-859 -628 -505 0
-860 -629 -506 0
-861 -630 -507 0
-859 -631 -508 0
-860 -632 -509 0
-861 -633 -510 0
-859 -634 -511 0
-860 -635 -512 0
-861 -636 -513 0
-859 -637 -514 0
-860 -638 -515 0
-861 -639 -516 0
-859 -640 -517 0
-860 -641 -518 0
-861 -642 -519 0
-859 -643 -520 0
-860 -644 -521 0
-861 -645 -522 0
-859 -646 -523 0
-860 -647 -524 0
-861 -648 -525 0
-859 -649 -526 0
-860 -650 -527 0
-861 -651 -528 0
-859 -652 -529 0
-860 -653 -530 0
-861 -654 -531 0
-859 -655 -532 0
-860 -656 -533 0
-861 -657 -534 0
-859 -658 -535 0
-860 -659 -536 0
-861 -660 -537 0
-859 -661 -538 0
-860 -662 -539 0
-861 -663 -540 0
-859 -664 -541 0
-860 -665 -542 0
-861 -666 -543 0
-859 -667 -544 0
-860 -668 -545 0
-861 -669 -546 0
-859 -670 -547 0
-860 -671 -548 0
-861 -672 -549 0
-859 -673 -550 0
-860 -674 -551 0
-861 -675 -552 0
-859 -676 -553 0
-860 -677 -554 0
-861 -678 -555 0
-859 -679 -556 0
-860 -680 -557 0
-861 -681 -558 0
-859 -682 -559 0
-860 -683 -560 0
-861 -684 -561 0
-859 -685 -562 0
-860 -686 -563 0
-861 -687 -564 0
-859 -688 -565 0
-860 -689 -566 0
-861 -690 -567 0
-859 -691 -568 0
-860 -692 -569 0
-861 -693 -570 0
-859 -694 -571 0
-860 -695 -572 0
-861 -696 -573 0
-859 -697 -574 0
-860 -698 -575 0
-861 -699 -576 0
-859 -700 -577 0
-860 -701 -578 0
-861 -702 -579 0
-859 -703 -580 0
-860 -704 -581 0
-861 -705 -582 0
-859 -706 -583 0
-860 -707 -584 0
-861 -708 -585 0
-859 -709 -586 0
-860 -710 -587 0
-861 -711 -588 0
-859 -712 -589 0
-860 -713 -590 0
-861 -714 -591 0
-859 -715 -592 0
-860 -716 -593 0
-861 -717 -594 0
-859 -718 -595 0
-860 -719 -596 0
-861 -720 -597 0
-859 -721 -598 0
-860 -722 -599 0
-861 -723 -600 0
-859 -724 -601 0
-860 -725 -602 0
-861 -726 -603 0
-859 -727 -604 0
-860 -728 -605 0
-861 -729 -606 0
-859 -730 -607 0
-860 -731 -608 0
-861 -732 -609 0
-859 -733 -610 0
-860 -734 -611 0
-861 -735 -612 0
-859 -736 -613 0
-860 -737 -614 0
-861 -738 -615 0
-859 -739 -616 0
-860 -740 -617 0
-861 -741 -618 0
-859 -742 -619 0
-860 -743 -620 0
-861 -744 -621 0
-859 -745 -622 0
-860 -746 -623 0
-861 -747 -624 0
-859 -748 -625 0
-860 -749 -626 0
-861 -750 -627 0
-859 -751 -628 0
-860 -752 -629 0
-861 -753 -630 0
-859 -754 -631 0
-860 -755 -632 0
-861 -756 -633 0
-859 -757 -634 0
-860 -758 -635 0
-861 -759 -636 0
-859 -760 -637 0
-860 -761 -638 0
-861 -762 -639 0
-859 -763 -640 0
-860 -764 -641 0
-861 -765 -642 0
-859 -766 -643 0
-860 -767 -644 0
-861 -768 -645 0
-859 -769 -646 0
-860 -770 -647 0
-861 -771 -648 0
-859 -772 -649 0
-860 -773 -650 0
-861 -774 -651 0
-859 -775 -652 0
-860 -776 -653 0
-861 -777 -654 0
-859 -778 -655 0
-860 -779 -656 0
-861 -780 -657 0
-859 -781 -658 0
-860 -782 -659 0
-861 -783 -660 0
-859 -784 -661 0
-860 -785 -662 0
-861 -786 -663 0
-859 -787 -664 0
-860 -788 -665 0
-861 -789 -666 0
-859 -790 -667 0
-860 -791 -668 0
-861 -792 -669 0
-859 -793 -670 0
-860 -794 -671 0
-861 -795 -672 0
-859 -796 -673 0
-860 -797 -674 0
-861 -798 -675 0
-859 -799 -676 0
-860 -800 -677 0
-861 -801 -678 0
-859 -802 -679 0
-860 -803 -680 0
-861 -804 -681 0
-859 -805 -682 0
-860 -806 -683 0
-861 -807 -684 0
-859 -808 -685 0
-860 -809 -686 0
-861 -810 -687 0
-859 -811 -688 0
-860 -812 -689 0
-861 -813 -690 0
-859 -814 -691 0
-860 -815 -692 0
-861 -816 -693 0
-859 -817 -694 0
-860 -818 -695 0
-861 -819 -696 0
-859 -820 -697 0
-860 -821 -698 0
-861 -822 -699 0
-859 -823 -700 0
-860 -824 -701 0
-861 -825 -702 0
-859 -826 -703 0
-860 -827 -704 0
-861 -828 -705 0
-859 -829 -706 0
-860 -830 -707 0
-861 -831 -708 0
-859 -832 -709 0
-860 -833 -710 0
-861 -834 -711 0
-859 -835 -712 0
-860 -836 -713 0
-861 -837 -714 0
-859 -838 -715 0
-860 -839 -716 0
-861 -840 -717 0
-859 -841 -718 0
-860 -842 -719 0
-861 -843 -720 0
-859 -844 -721 0
-860 -845 -722 0
-861 -846 -723 0
-859 -847 -724 0
-860 -848 -725 0
-861 -849 -726 0
-859 -850 -727 0
-860 -851 -728 0
-861 -852 -729 0
-859 -853 -730 0
-860 -854 -731 0
-861 -855 -732 0
-859 -856 -733 0
-860 -857 -734 0
-861 -858 -735 0
-859 -736 0
-860 -737 0
-861 -738 0
-862 -859 -739 0
-863 -860 -740 0
-864 -861 -741 0
-865 -859 -742 0
-866 -860 -743 0
-867 -861 -744 0
-868 -859 -745 0
-869 -860 -746 0
-870 -861 -747 0
-871 -859 -748 0
-872 -860 -749 0
-873 -861 -750 0
-874 -859 -751 0
-875 -860 -752 0
-876 -861 -753 0
-877 -859 -754 0
-878 -860 -755 0
-879 -861 -756 0
-880 -859 -757 0
-881 -860 -758 0
-882 -861 -759 0
-883 -859 -760 0
-884 -860 -761 0
-885 -861 -762 0
-886 -859 -763 0
-887 -860 -764 0
-888 -861 -765 0
-889 -859 -766 0
-890 -860 -767 0
-891 -861 -768 0
-892 -859 -769 0
-893 -860 -770 0
-894 -861 -771 0
-895 -859 -772 0
-896 -860 -773 0
-897 -861 -774 0
-898 -859 -775 0
-899 -860 -776 0
-900 -861 -777 0
-901 -859 -778 0
-902 -860 -779 0
-903 -861 -780 0
-904 -859 -781 0
-905 -860 -782 0
-906 -861 -783 0
-907 -859 -784 0
-908 -860 -785 0
-909 -861 -786 0
-910 -859 -787 0
-911 -860 -788 0
-912 -861 -789 0
-913 -859 -790 0
-914 -860 -791 0
-915 -861 -792 0
-916 -859 -793 0
-917 -860 -794 0
-918 -861 -795 0
-919 -859 -796 0
-920 -860 -797 0
-921 -861 -798 0
-922 -859 -799 0
-923 -860 -800 0
-924 -861 -801 0
-925 -859 -802 0
-926 -860 -803 0
-927 -861 -804 0
-928 -859 -805 0
-929 -860 -806 0
-930 -861 -807 0
-931 -859 -808 0
-932 -860 -809 0
-933 -861 -810 0
-934 -859 -811 0
-935 -860 -812 0
-936 -861 -813 0
-937 -859 -814 0
-938 -860 -815 0
-939 -861 -816 0
-940 -859 -817 0
-941 -860 -818 0
-942 -861 -819 0
-943 -859 -820 0
-944 -860 -821 0
-945 -861 -822 0
-946 -859 -823 0
-947 -860 -824 0
-948 -861 -825 0
-949 -859 -826 0
-950 -860 -827 0
-951 -861 -828 0
-952 -859 -829 0
-953 -860 -830 0
-954 -861 -831 0
-955 -859 -832 0
-956 -860 -833 0
-957 -861 -834 0
-958 -859 -835 0
-959 -860 -836 0
-960 -861 -837 0
-961 -859 -838 0
-962 -860 -839 0
-963 -861 -840 0
-964 -859 -841 0
-965 -860 -842 0
-966 -861 -843 0
-967 -859 -844 0
-968 -860 -845 0
-969 -861 -846 0
-970 -859 -847 0
-971 -860 -848 0
-972 -861 -849 0
-973 -859 -850 0
-974 -860 -851 0
-975 -861 -852 0
-976 -859 -853 0
-977 -860 -854 0
-978 -861 -855 0
-979 -859 -856 0
-980 -860 -857 0
-981 -861 -858 0
-982 -859 0
-983 -860 0
-984 -861 0
-985 -862 -859 0
-986 -863 -860 0
-987 -864 -861 0
-988 -865 -859 0
-989 -866 -860 0
-990 -867 -861 0
-991 -868 -859 0
-992 -869 -860 0
-993 -870 -861 0
-994 -871 -859 0
-995 -872 -860 0
-996 -873 -861 0
-997 -874 -859 0
-998 -875 -860 0
-999 -876 -861 0
-1000 -877 -859 0
-1001 -878 -860 0
-1002 -879 -861 0
-1003 -880 -859 0
-1004 -881 -860 0
-1005 -882 -861 0
-1006 -883 -859 0
-1007 -884 -860 0
-1008 -885 -861 0
-1009 -886 -859 0
-1010 -887 -860 0
-1011 -888 -861 0
-1012 -889 -859 0
-1013 -890 -860 0
-1014 -891 -861 0
-1015 -892 -859 0
-1016 -893 -860 0
-1017 -894 -861 0
-1018 -895 -859 0
-1019 -896 -860 0
-1020 -897 -861 0
-1021 -898 -859 0
-1022 -899 -860 0
-1023 -900 -861 0
-1024 -901 -859 0
-1025 -902 -860 0
-1026 -903 -861 0
-1027 -904 -859 0
-1028 -905 -860 0
-1029 -906 -861 0
-880 -127 -1 0
-881 -128 -2 0
-882 -129 -3 0
-880 -130 -4 0
-881 -131 -5 0
-882 -132 -6 0
-880 -133 -7 0
-881 -134 -8 0
-882 -135 -9 0
-880 -136 -10 0
-881 -137 -11 0
-882 -138 -12 0
-880 -139 -13 0
-881 -140 -14 0
-882 -141 -15 0
-880 -142 -16 0
-881 -143 -17 0
-882 -144 -18 0
-880 -145 -19 0
-881 -146 -20 0
-882 -147 -21 0
-880 -148 -22 0
-881 -149 -23 0
-882 -150 -24 0
-880 -151 -25 0
-881 -152 -26 0
-882 -153 -27 0
-880 -154 -28 0
-881 -155 -29 0
-882 -156 -30 0
-880 -157 -31 0
-881 -158 -32 0
-882 -159 -33 0
-880 -160 -34 0
-881 -161 -35 0
-882 -162 -36 0
-880 -163 -37 0
-881 -164 -38 0
-882 -165 -39 0
-880 -166 -40 0
-881 -167 -41 0
-882 -168 -42 0
-880 -169 -43 0
-881 -170 -44 0
-882 -171 -45 0
-880 -172 -46 0
-881 -173 -47 0
-882 -174 -48 0
-880 -175 -49 0
-881 -176 -50 0
-882 -177 -51 0
-880 -178 -52 0
-881 -179 -53 0
-882 -180 -54 0
-880 -181 -55 0
-881 -182 -56 0
-882 -183 -57 0
-880 -184 -58 0
-881 -185 -59 0
-882 -186 -60 0
-880 -187 -61 0
-881 -188 -62 0
-882 -189 -63 0
-880 -190 -64 0
-881 -191 -65 0
-882 -192 -66 0
-880 -193 -67 0
-881 -194 -68 0
-882 -195 -69 0
-880 -196 -70 0
-881 -197 -71 0
-882 -198 -72 0
-880 -199 -73 0
-881 -200 -74 0
-882 -201 -75 0
-880 -202 -76 0
-881 -203 -77 0
-882 -204 -78 0
-880 -205 -79 0
-881 -206 -80 0
-882 -207 -81 0
-880 -208 -82 0
-881 -209 -83 0
-882 -210 -84 0
-880 -211 -85 0
-881 -212 -86 0
-882 -213 -87 0
-880 -214 -88 0
-881 -215 -89 0
-882 -216 -90 0
-880 -217 -91 0
-881 -218 -92 0
-882 -219 -93 0
-880 -220 -94 0
-881 -221 -95 0
-882 -222 -96 0
-880 -223 -97 0
-881 -224 -98 0
-882 -225 -99 0
-880 -226 -100 0
-881 -227 -101 0
-882 -228 -102 0
-880 -229 -103 0
-881 -230 -104 0
-882 -231 -105 0
-880 -232 -106 0
-881 -233 -107 0
-882 -234 -108 0
-880 -235 -109 0
-881 -236 -110 0
-882 -237 -111 0
-880 -238 -112 0
-881 -239 -113 0
-882 -240 -114 0
-880 -241 -115 0
-881 -242 -116 0
-882 -243 -117 0
-880 -244 -118 0
-881 -245 -119 0
-882 -246 -120 0
-880 -247 -121 0
-881 -248 -122 0
-882 -249 -123 0
-880 -250 -124 0
-881 -251 -125 0
-882 -252 -126 0
-880 -253 -127 0
-881 -254 -128 0
-882 -255 -129 0
-880 -256 -130 0
-881 -257 -131 0
-882 -258 -132 0
-880 -259 -133 0
-881 -260 -134 0
-882 -261 -135 0
-880 -262 -136 0
-881 -263 -137 0
-882 -264 -138 0
-880 -265 -139 0
-881 -266 -140 0
-882 -267 -141 0
-880 -268 -142 0
-881 -269 -143 0
-882 -270 -144 0
-880 -271 -145 0
-881 -272 -146 0
-882 -273 -147 0
-880 -274 -148 0
-881 -275 -149 0
-882 -276 -150 0
-880 -277 -151 0
-881 -278 -152 0
-882 -279 -153 0
-880 -280 -154 0
-881 -281 -155 0
-882 -282 -156 0
-880 -283 -157 0
-881 -284 -158 0
-882 -285 -159 0
-880 -286 -160 0
-881 -287 -161 0
-882 -288 -162 0
-880 -289 -163 0
-881 -290 -164 0
-882 -291 -165 0
-880 -292 -166 0
-881 -293 -167 0
-882 -294 -168 0
-880 -295 -169 0
-881 -296 -170 0
-882 -297 -171 0
-880 -298 -172 0
-881 -299 -173 0
-882 -300 -174 0
-880 -301 -175 0
-881 -302 -176 0
-882 -303 -177 0
-880 -304 -178 0
-881 -305 -179 0
-882 -306 -180 0
-880 -307 -181 0
-881 -308 -182 0
-882 -309 -183 0
-880 -310 -184 0
-881 -311 -185 0
-882 -312 -186 0
-880 -313 -187 0
-881 -314 -188 0
-882 -315 -189 0
-880 -316 -190 0
-881 -317 -191 0
-882 -318 -192 0
-880 -319 -193 0
-881 -320 -194 0
-882 -321 -195 0
-880 -322 -196 0
-881 -323 -197 0
-882 -324 -198 0
-880 -325 -199 0
-881 -326 -200 0
-882 -327 -201 0
-880 -328 -202 0
-881 -329 -203 0
-882 -330 -204 0
-880 -331 -205 0
-881 -332 -206 0
-882 -333 -207 0
-880 -334 -208 0
-881 -335 -209 0
-882 -336 -210 0
-880 -337 -211 0
-881 -338 -212 0
-882 -339 -213 0
-880 -340 -214 0
-881 -341 -215 0
-882 -342 -216 0
-880 -343 -217 0
-881 -344 -218 0
-882 -345 -219 0
-880 -346 -220 0
-881 -347 -221 0
-882 -348 -222 0
-880 -349 -223 0
-881 -350 -224 0
-882 -351 -225 0
-880 -352 -226 0
-881 -353 -227 0
-882 -354 -228 0
-880 -355 -229 0
-881 -356 -230 0
-882 -357 -231 0
-880 -358 -232 0
-881 -359 -233 0
-882 -360 -234 0
-880 -361 -235 0
-881 -362 -236 0
-882 -363 -237 0
-880 -364 -238 0
-881 -365 -239 0
-882 -366 -240 0
-880 -367 -241 0
-881 -368 -242 0
-882 -369 -243 0
-880 -370 -244 0
-881 -371 -245 0
-882 -372 -246 0
-880 -373 -247 0
-881 -374 -248 0
-882 -375 -249 0
-880 -376 -250 0
-881 -377 -251 0
-882 -378 -252 0
-880 -379 -253 0
-881 -380 -254 0
-882 -381 -255 0
-880 -382 -256 0
-881 -383 -257 0
-882 -384 -258 0
-880 -385 -259 0
-881 -386 -260 0
-882 -387 -261 0
-880 -388 -262 0
-881 -389 -263 0
-882 -390 -264 0
-880 -391 -265 0
-881 -392 -266 0
-882 -393 -267 0
-880 -394 -268 0
-881 -395 -269 0
-882 -396 -270 0
-880 -397 -271 0
-881 -398 -272 0
-882 -399 -273 0
-880 -400 -274 0
-881 -401 -275 0
-882 -402 -276 0
-880 -403 -277 0
-881 -404 -278 0
-882 -405 -279 0
-880 -406 -280 0
-881 -407 -281 0
-882 -408 -282 0
-880 -409 -283 0
-881 -410 -284 0
-882 -411 -285 0
-880 -412 -286 0
-881 -413 -287 0
-882 -414 -288 0
-880 -415 -289 0
-881 -416 -290 0
-882 -417 -291 0
-880 -418 -292 0
-881 -419 -293 0
-882 -420 -294 0
-880 -421 -295 0
-881 -422 -296 0
-882 -423 -297 0
-880 -424 -298 0
-881 -425 -299 0
-882 -426 -300 0
-880 -427 -301 0
-881 -428 -302 0
-882 -429 -303 0
-880 -430 -304 0
-881 -431 -305 0
-882 -432 -306 0
-880 -433 -307 0
-881 -434 -308 0
-882 -435 -309 0
-880 -436 -310 0
-881 -437 -311 0
-882 -438 -312 0
-880 -439 -313 0
-881 -440 -314 0
-882 -441 -315 0
-880 -442 -316 0
-881 -443 -317 0
-882 -444 -318 0
-880 -445 -319 0
-881 -446 -320 0
-882 -447 -321 0
-880 -448 -322 0
-881 -449 -323 0
-882 -450 -324 0
-880 -451 -325 0
-881 -452 -326 0
-882 -453 -327 0
-880 -454 -328 0
-881 -455 -329 0
-882 -456 -330 0
-880 -457 -331 0
-881 -458 -332 0
-882 -459 -333 0
-880 -460 -334 0
-881 -461 -335 0
-882 -462 -336 0
-880 -463 -337 0
-881 -464 -338 0
-882 -465 -339 0
-880 -466 -340 0
-881 -467 -341 0
-882 -468 -342 0
-880 -469 -343 0
-881 -470 -344 0
-882 -471 -345 0
-880 -472 -346 0
-881 -473 -347 0
-882 -474 -348 0
-880 -475 -349 0
-881 -476 -350 0
-882 -477 -351 0
-880 -478 -352 0
-881 -479 -353 0
-882 -480 -354 0
-880 -481 -355 0
-881 -482 -356 0
-882 -483 -357 0
-880 -484 -358 0
-881 -485 -359 0
-882 -486 -360 0
-880 -487 -361 0
-881 -488 -362 0
-882 -489 -363 0
-880 -490 -364 0
-881 -491 -365 0
-882 -492 -366 0
-880 -493 -367 0
-881 -494 -368 0
-882 -495 -369 0
-880 -496 -370 0
-881 -497 -371 0
-882 -498 -372 0
-880 -499 -373 0
-881 -500 -374 0
-882 -501 -375 0
-880 -502 -376 0
-881 -503 -377 0
-882 -504 -378 0
-880 -505 -379 0
-881 -506 -380 0
-882 -507 -381 0
-880 -508 -382 0
-881 -509 -383 0
-882 -510 -384 0
-880 -511 -385 0
-881 -512 -386 0
-882 -513 -387 0
-880 -514 -388 0
-881 -515 -389 0
-882 -516 -390 0
-880 -517 -391 0
-881 -518 -392 0
-882 -519 -393 0
-880 -520 -394 0
-881 -521 -395 0
-882 -522 -396 0
-880 -523 -397 0
-881 -524 -398 0
-882 -525 -399 0
-880 -526 -400 0
-881 -527 -401 0
-882 -528 -402 0
-880 -529 -403 0
-881 -530 -404 0
-882 -531 -405 0
-880 -532 -406 0
-881 -533 -407 0
-882 -534 -408 0
-880 -535 -409 0
-881 -536 -410 0
-882 -537 -411 0
-880 -538 -412 0
-881 -539 -413 0
-882 -540 -414 0
-880 -541 -415 0
-881 -542 -416 0
-882 -543 -417 0
-880 -544 -418 0
-881 -545 -419 0
-882 -546 -420 0
-880 -547 -421 0
-881 -548 -422 0
-882 -549 -423 0
-880 -550 -424 0
-881 -551 -425 0
-882 -552 -426 0
-880 -553 -427 0
-881 -554 -428 0
-882 -555 -429 0
-880 -556 -430 0
-881 -557 -431 0
-882 -558 -432 0
-880 -559 -433 0
-881 -560 -434 0
-882 -561 -435 0
-880 -562 -436 0
-881 -563 -437 0
-882 -564 -438 0
-880 -565 -439 0
-881 -566 -440 0
-882 -567 -441 0
-880 -568 -442 0
-881 -569 -443 0
-882 -570 -444 0
-880 -571 -445 0
-881 -572 -446 0
-882 -573 -447 0
-880 -574 -448 0
-881 -575 -449 0
-882 -576 -450 0
-880 -577 -451 0
-881 -578 -452 0
-882 -579 -453 0
-880 -580 -454 0
-881 -581 -455 0
-882 -582 -456 0
-880 -583 -457 0
-881 -584 -458 0
-882 -585 -459 0
-880 -586 -460 0
-881 -587 -461 0
-882 -588 -462 0
-880 -589 -463 0
-881 -590 -464 0
-882 -591 -465 0
-880 -592 -466 0
-881 -593 -467 0
-882 -594 -468 0
-880 -595 -469 0
-881 -596 -470 0
-882 -597 -471 0
-880 -598 -472 0
-881 -599 -473 0
-882 -600 -474 0
-880 -601 -475 0
-881 -602 -476 0
-882 -603 -477 0
-880 -604 -478 0
-881 -605 -479 0
-882 -606 -480 0
-880 -607 -481 0
-881 -608 -482 0
-882 -609 -483 0
-880 -610 -484 0
-881 -611 -485 0
-882 -612 -486 0
-880 -613 -487 0
-881 -614 -488 0
-882 -615 -489 0
-880 -616 -490 0
-881 -617 -491 0
-882 -618 -492 0
-880 -619 -493 0
-881 -620 -494 0
-882 -621 -495 0
-880 -622 -496 0
-881 -623 -497 0
-882 -624 -498 0
-880 -625 -499 0
-881 -626 -500 0
-882 -627 -501 0
-880 -628 -502 0
-881 -629 -503 0
-882 -630 -504 0
-880 -631 -505 0
-881 -632 -506 0
-882 -633 -507 0
-880 -634 -508 0
-881 -635 -509 0
-882 -636 -510 0
-880 -637 -511 0
-881 -638 -512 0
-882 -639 -513 0
-880 -640 -514 0
-881 -641 -515 0
-882 -642 -516 0
-880 -643 -517 0
-881 -644 -518 0
-882 -645 -519 0
-880 -646 -520 0
-881 -647 -521 0
-882 -648 -522 0
-880 -649 -523 0
-881 -650 -524 0
-882 -651 -525 0
-880 -652 -526 0
-881 -653 -527 0
-882 -654 -528 0
-880 -655 -529 0
-881 -656 -530 0
-882 -657 -531 0
-880 -658 -532 0
-881 -659 -533 0
-882 -660 -534 0
-880 -661 -535 0
-881 -662 -536 0
-882 -663 -537 0
-880 -664 -538 0
-881 -665 -539 0
-882 -666 -540 0
-880 -667 -541 0
-881 -668 -542 0
-882 -669 -543 0
-880 -670 -544 0
-881 -671 -545 0
-882 -672 -546 0
-880 -673 -547 0
-881 -674 -548 0
-882 -675 -549 0
-880 -676 -550 0
-881 -677 -551 0
-882 -678 -552 0
-880 -679 -553 0
-881 -680 -554 0
-882 -681 -555 0
-880 -682 -556 0
-881 -683 -557 0
-882 -684 -558 0
-880 -685 -559 0
-881 -686 -560 0
-882 -687 -561 0
-880 -688 -562 0
-881 -689 -563 0
-882 -690 -564 0
-880 -691 -565 0
-881 -692 -566 0
-882 -693 -567 0
-880 -694 -568 0
-881 -695 -569 0
-882 -696 -570 0
-880 -697 -571 0
-881 -698 -572 0
-882 -699 -573 0
-880 -700 -574 0
-881 -701 -575 0
-882 -702 -576 0
-880 -703 -577 0
-881 -704 -578 0
-882 -705 -579 0
-880 -706 -580 0
-881 -707 -581 0
-882 -708 -582 0
-880 -709 -583 0
-881 -710 -584 0
-882 -711 -585 0
-880 -712 -586 0
-881 -713 -587 0
-882 -714 -588 0
-880 -715 -589 0
-881 -716 -590 0
-882 -717 -591 0
-880 -718 -592 0
-881 -719 -593 0
-882 -720 -594 0
-880 -721 -595 0
-881 -722 -596 0
-882 -723 -597 0
-880 -724 -598 0
-881 -725 -599 0
-882 -726 -600 0
-880 -727 -601 0
-881 -728 -602 0
-882 -729 -603 0
-880 -730 -604 0
-881 -731 -605 0
-882 -732 -606 0
-880 -733 -607 0
-881 -734 -608 0
-882 -735 -609 0
-880 -736 -610 0
-881 -737 -611 0
-882 -738 -612 0
-880 -739 -613 0
-881 -740 -614 0
-882 -741 -615 0
-880 -742 -616 0
-881 -743 -617 0
-882 -744 -618 0
-880 -745 -619 0
-881 -746 -620 0
-882 -747 -621 0
-880 -748 -622 0
-881 -749 -623 0
-882 -750 -624 0
-880 -751 -625 0
-881 -752 -626 0
-882 -753 -627 0
-880 -754 -628 0
-881 -755 -629 0
-882 -756 -630 0
-880 -757 -631 0
-881 -758 -632 0
-882 -759 -633 0
-880 -760 -634 0
-881 -761 -635 0
-882 -762 -636 0
-880 -763 -637 0
-881 -764 -638 0
-882 -765 -639 0
-880 -766 -640 0
-881 -767 -641 0
-882 -768 -642 0
-880 -769 -643 0
-881 -770 -644 0
-882 -771 -645 0
-880 -772 -646 0
-881 -773 -647 0
-882 -774 -648 0
-880 -775 -649 0
-881 -776 -650 0
-882 -777 -651 0
-880 -778 -652 0
-881 -779 -653 0
-882 -780 -654 0
-880 -781 -655 0
-881 -782 -656 0
-882 -783 -657 0
-880 -784 -658 0
-881 -785 -659 0
-882 -786 -660 0
-880 -787 -661 0
-881 -788 -662 0
-882 -789 -663 0
-880 -790 -664 0
-881 -791 -665 0
-882 -792 -666 0
-880 -793 -667 0
-881 -794 -668 0
-882 -795 -669 0
-880 -796 -670 0
-881 -797 -671 0
-882 -798 -672 0
-880 -799 -673 0
-881 -800 -674 0
-882 -801 -675 0
-880 -802 -676 0
-881 -803 -677 0
-882 -804 -678 0
-880 -805 -679 0
-881 -806 -680 0
-882 -807 -681 0
-880 -808 -682 0
-881 -809 -683 0
-882 -810 -684 0
-880 -811 -685 0
-881 -812 -686 0
-882 -813 -687 0
-880 -814 -688 0
-881 -815 -689 0
-882 -816 -690 0
-880 -817 -691 0
-881 -818 -692 0
-882 -819 -693 0
-880 -820 -694 0
-881 -821 -695 0
-882 -822 -696 0
-880 -823 -697 0
-881 -824 -698 0
-882 -825 -699 0
-880 -826 -700 0
-881 -827 -701 0
-882 -828 -702 0
-880 -829 -703 0
-881 -830 -704 0
-882 -831 -705 0
-880 -832 -706 0
-881 -833 -707 0
-882 -834 -708 0
-880 -835 -709 0
-881 -836 -710 0
-882 -837 -711 0
-880 -838 -712 0
-881 -839 -713 0
-882 -840 -714 0
-880 -841 -715 0
-881 -842 -716 0
-882 -843 -717 0
-880 -844 -718 0
-881 -845 -719 0
-882 -846 -720 0
-880 -847 -721 0
-881 -848 -722 0
-882 -849 -723 0
-880 -850 -724 0
-881 -851 -725 0
-882 -852 -726 0
-880 -853 -727 0
-881 -854 -728 0
-882 -855 -729 0
-880 -856 -730 0
-881 -857 -731 0
-882 -858 -732 0
-880 -859 -733 0
-881 -860 -734 0
-882 -861 -735 0
-880 -862 -736 0
-881 -863 -737 0
-882 -864 -738 0
-880 -865 -739 0
-881 -866 -740 0
-882 -867 -741 0
-880 -868 -742 0
-881 -869 -743 0
-882 -870 -744 0
-880 -871 -745 0
-881 -872 -746 0
-882 -873 -747 0
-880 -874 -748 0
-881 -875 -749 0
-882 -876 -750 0
-880 -877 -751 0
-881 -878 -752 0
-882 -879 -753 0
-880 -754 0
-881 -755 0
-882 -756 0
-883 -880 -757 0
-884 -881 -758 0
-885 -882 -759 0
-886 -880 -760 0
-887 -881 -761 0
-888 -882 -762 0
-889 -880 -763 0
-890 -881 -764 0
-891 -882 -765 0
-892 -880 -766 0
-893 -881 -767 0
-894 -882 -768 0
-895 -880 -769 0
-896 -881 -770 0
-897 -882 -771 0
-898 -880 -772 0
-899 -881 -773 0
-900 -882 -774 0
-901 -880 -775 0
-902 -881 -776 0
-903 -882 -777 0
-904 -880 -778 0
-905 -881 -779 0
-906 -882 -780 0
-907 -880 -781 0
-908 -881 -782 0
-909 -882 -783 0
-910 -880 -784 0
-911 -881 -785 0
-912 -882 -786 0
-913 -880 -787 0
-914 -881 -788 0
-915 -882 -789 0
-916 -880 -790 0
-917 -881 -791 0
-918 -882 -792 0
-919 -880 -793 0
-920 -881 -794 0
-921 -882 -795 0
-922 -880 -796 0
-923 -881 -797 0
-924 -882 -798 0
-925 -880 -799 0
-926 -881 -800 0
-927 -882 -801 0
-928 -880 -802 0
-929 -881 -803 0
-930 -882 -804 0
-931 -880 -805 0
-932 -881 -806 0
-933 -882 -807 0
-934 -880 -808 0
-935 -881 -809 0
-936 -882 -810 0
-937 -880 -811 0
-938 -881 -812 0
-939 -882 -813 0
-940 -880 -814 0
-941 -881 -815 0
-942 -882 -816 0
-943 -880 -817 0
-944 -881 -818 0
-945 -882 -819 0
-946 -880 -820 0
-947 -881 -821 0
-948 -882 -822 0
-949 -880 -823 0
-950 -881 -824 0
-951 -882 -825 0
-952 -880 -826 0
-953 -881 -827 0
-954 -882 -828 0
-955 -880 -829 0
-956 -881 -830 0
-957 -882 -831 0
-958 -880 -832 0
-959 -881 -833 0
-960 -882 -834 0
-961 -880 -835 0
-962 -881 -836 0
-963 -882 -837 0
-964 -880 -838 0
-965 -881 -839 0
-966 -882 -840 0
-967 -880 -841 0
-968 -881 -842 0
-969 -882 -843 0
-970 -880 -844 0
-971 -881 -845 0
-972 -882 -846 0
-973 -880 -847 0
-974 -881 -848 0
-975 -882 -849 0
-976 -880 -850 0
-977 -881 -851 0
-978 -882 -852 0
-979 -880 -853 0
-980 -881 -854 0
-981 -882 -855 0
-982 -880 -856 0
-983 -881 -857 0
-984 -882 -858 0
-985 -880 -859 0
-986 -881 -860 0
-987 -882 -861 0
-988 -880 -862 0
-989 -881 -863 0
-990 -882 -864 0
-991 -880 -865 0
-992 -881 -866 0
-993 -882 -867 0
-994 -880 -868 0
-995 -881 -869 0
-996 -882 -870 0
-997 -880 -871 0
-998 -881 -872 0
-999 -882 -873 0
-1000 -880 -874 0
-1001 -881 -875 0
-1002 -882 -876 0
-1003 -880 -877 0
-1004 -881 -878 0
-1005 -882 -879 0
-1006 -880 0
-1007 -881 0
-1008 -882 0
-1009 -883 -880 0
-1010 -884 -881 0
-1011 -885 -882 0
-1012 -886 -880 0
-1013 -887 -881 0
-1014 -888 -882 0
-1015 -889 -880 0
-1016 -890 -881 0
-1017 -891 -882 0
-1018 -892 -880 0
-1019 -893 -881 0
-1020 -894 -882 0
-1021 -895 -880 0
-1022 -896 -881 0
-1023 -897 -882 0
-1024 -898 -880 0
-1025 -899 -881 0
-1026 -900 -882 0
-1027 -901 -880 0
-1028 -902 -881 0
-1029 -903 -882 0
-901 -130 -1 0
-902 -131 -2 0
-903 -132 -3 0
-901 -133 -4 0
-902 -134 -5 0
-903 -135 -6 0
-901 -136 -7 0
-902 -137 -8 0
-903 -138 -9 0
-901 -139 -10 0
-902 -140 -11 0
-903 -141 -12 0
-901 -142 -13 0
-902 -143 -14 0
-903 -144 -15 0
-901 -145 -16 0
-902 -146 -17 0
-903 -147 -18 0
-901 -148 -19 0
-902 -149 -20 0
-903 -150 -21 0
-901 -151 -22 0
-902 -152 -23 0
-903 -153 -24 0
-901 -154 -25 0
-902 -155 -26 0
-903 -156 -27 0
-901 -157 -28 0
-902 -158 -29 0
-903 -159 -30 0
-901 -160 -31 0
-902 -161 -32 0
-903 -162 -33 0
-901 -163 -34 0
-902 -164 -35 0
-903 -165 -36 0
-901 -166 -37 0
-902 -167 -38 0
-903 -168 -39 0
-901 -169 -40 0
-902 -170 -41 0
-903 -171 -42 0
-901 -172 -43 0
-902 -173 -44 0
-903 -174 -45 0
-901 -175 -46 0
-902 -176 -47 0
-903 -177 -48 0
-901 -178 -49 0
-902 -179 -50 0
-903 -180 -51 0
-901 -181 -52 0
-902 -182 -53 0
-903 -183 -54 0
-901 -184 -55 0
-902 -185 -56 0
-903 -186 -57 0
-901 -187 -58 0
-902 -188 -59 0
-903 -189 -60 0
-901 -190 -61 0
-902 -191 -62 0
-903 -192 -63 0
-901 -193 -64 0
-902 -194 -65 0
-903 -195 -66 0
-901 -196 -67 0
-902 -197 -68 0
-903 -198 -69 0
-901 -199 -70 0
-902 -200 -71 0
-903 -201 -72 0
-901 -202 -73 0
-902 -203 -74 0
-903 -204 -75 0
-901 -205 -76 0
-902 -206 -77 0
-903 -207 -78 0
-901 -208 -79 0
-902 -209 -80 0
-903 -210 -81 0
-901 -211 -82 0
-902 -212 -83 0
-903 -213 -84 0
-901 -214 -85 0
-902 -215 -86 0
-903 -216 -87 0
-901 -217 -88 0
-902 -218 -89 0
-903 -219 -90 0
-901 -220 -91 0
-902 -221 -92 0
-903 -222 -93 0
-901 -223 -94 0
-902 -224 -95 0
-903 -225 -96 0
-901 -226 -97 0
-902 -227 -98 0
-903 -228 -99 0
-901 -229 -100 0
-902 -230 -101 0
-903 -231 -102 0
-901 -232 -103 0
-902 -233 -104 0
-903 -234 -105 0
-901 -235 -106 0
-902 -236 -107 0
-903 -237 -108 0
-901 -238 -109 0
-902 -239 -110 0
-903 -240 -111 0
-901 -241 -112 0
-902 -242 -113 0
-903 -243 -114 0
-901 -244 -115 0
-902 -245 -116 0
-903 -246 -117 0
-901 -247 -118 0
-902 -248 -119 0
-903 -249 -120 0
-901 -250 -121 0
-902 -251 -122 0
-903 -252 -123 0
-901 -253 -124 0
-902 -254 -125 0
-903 -255 -126 0
-901 -256 -127 0
-902 -257 -128 0
-903 -258 -129 0
-901 -259 -130 0
-902 -260 -131 0
-903 -261 -132 0
-901 -262 -133 0
-902 -263 -134 0
-903 -264 -135 0
-901 -265 -136 0
-902 -266 -137 0
-903 -267 -138 0
-901 -268 -139 0
-902 -269 -140 0
-903 -270 -141 0
-901 -271 -142 0
-902 -272 -143 0
-903 -273 -144 0
-901 -274 -145 0
-902 -275 -146 0
-903 -276 -147 0
-901 -277 -148 0
-902 -278 -149 0
-903 -279 -150 0
-901 -280 -151 0
-902 -281 -152 0
-903 -282 -153 0
-901 -283 -154 0
-902 -284 -155 0
-903 -285 -156 0
-901 -286 -157 0
-902 -287 -158 0
-903 -288 -159 0
-901 -289 -160 0
-902 -290 -161 0
-903 -291 -162 0
-901 -292 -163 0
-902 -293 -164 0
-903 -294 -165 0
-901 -295 -166 0
-902 -296 -167 0
-903 -297 -168 0
-901 -298 -169 0
-902 -299 -170 0
-903 -300 -171 0
-901 -301 -172 0
-902 -302 -173 0
-903 -303 -174 0
-901 -304 -175 0
-902 -305 -176 0
-903 -306 -177 0
-901 -307 -178 0
-902 -308 -179 0
-903 -309 -180 0
-901 -310 -181 0
-902 -311 -182 0
-903 -312 -183 0
-901 -313 -184 0
-902 -314 -185 0
-903 -315 -186 0
-901 -316 -187 0
-902 -317 -188 0
-903 -318 -189 0
-901 -319 -190 0
-902 -320 -191 0
-903 -321 -192 0
-901 -322 -193 0
-902 -323 -194 0
-903 -324 -195 0
-901 -325 -196 0
-902 -326 -197 0
-903 -327 -198 0
-901 -328 -199 0
-902 -329 -200 0
-903 -330 -201 0
-901 -331 -202 0
-902 -332 -203 0
-903 -333 -204 0
-901 -334 -205 0
-902 -335 -206 0
-903 -336 -207 0
-901 -337 -208 0
-902 -338 -209 0
-903 -339 -210 0
-901 -340 -211 0
-902 -341 -212 0
-903 -342 -213 0
-901 -343 -214 0
-902 -344 -215 0
-903 -345 -216 0
-901 -346 -217 0
-902 -347 -218 0
-903 -348 -219 0
-901 -349 -220 0
-902 -350 -221 0
-903 -351 -222 0
-901 -352 -223 0
-902 -353 -224 0
-903 -354 -225 0
-901 -355 -226 0
-902 -356 -227 0
-903 -357 -228 0
-901 -358 -229 0
-902 -359 -230 0
-903 -360 -231 0
-901 -361 -232 0
-902 -362 -233 0
-903 -363 -234 0
-901 -364 -235 0
-902 -365 -236 0
-903 -366 -237 0
-901 -367 -238 0
-902 -368 -239 0
-903 -369 -240 0
-901 -370 -241 0
-902 -371 -242 0
-903 -372 -243 0
-901 -373 -244 0
-902 -374 -245 0
-903 -375 -246 0
-901 -376 -247 0
-902 -377 -248 0
-903 -378 -249 0
-901 -379 -250 0
-902 -380 -251 0
-903 -381 -252 0
-901 -382 -253 0
-902 -383 -254 0
-903 -384 -255 0
-901 -385 -256 0
-902 -386 -257 0
-903 -387 -258 0
-901 -388 -259 0
-902 -389 -260 0
-903 -390 -261 0
-901 -391 -262 0
-902 -392 -263 0
-903 -393 -264 0
-901 -394 -265 0
-902 -395 -266 0
-903 -396 -267 0
-901 -397 -268 0
-902 -398 -269 0
-903 -399 -270 0
-901 -400 -271 0
-902 -401 -272 0
-903 -402 -273 0
-901 -403 -274 0
-902 -404 -275 0
-903 -405 -276 0
-901 -406 -277 0
-902 -407 -278 0
-903 -408 -279 0
-901 -409 -280 0
-902 -410 -281 0
-903 -411 -282 0
-901 -412 -283 0
-902 -413 -284 0
-903 -414 -285 0
-901 -415 -286 0
-902 -416 -287 0
-903 -417 -288 0
-901 -418 -289 0
-902 -419 -290 0
-903 -420 -291 0
-901 -421 -292 0
-902 -422 -293 0
-903 -423 -294 0
-901 -424 -295 0
-902 -425 -296 0
-903 -426 -297 0
-901 -427 -298 0
-902 -428 -299 0
-903 -429 -300 0
-901 -430 -301 0
-902 -431 -302 0
-903 -432 -303 0
-901 -433 -304 0
-902 -434 -305 0
-903 -435 -306 0
-901 -436 -307 0
-902 -437 -308 0
-903 -438 -309 0
-901 -439 -310 0
-902 -440 -311 0
-903 -441 -312 0
-901 -442 -313 0
-902 -443 -314 0
-903 -444 -315 0
-901 -445 -316 0
-902 -446 -317 0
-903 -447 -318 0
-901 -448 -319 0
-902 -449 -320 0
-903 -450 -321 0
-901 -451 -322 0
-902 -452 -323 0
-903 -453 -324 0
-901 -454 -325 0
-902 -455 -326 0
-903 -456 -327 0
-901 -457 -328 0
-902 -458 -329 0
-903 -459 -330 0
-901 -460 -331 0
-902 -461 -332 0
-903 -462 -333 0
-901 -463 -334 0
-902 -464 -335 0
-903 -465 -336 0
-901 -466 -337 0
-902 -467 -338 0
-903 -468 -339 0
-901 -469 -340 0
-902 -470 -341 0
-903 -471 -342 0
-901 -472 -343 0
-902 -473 -344 0
-903 -474 -345 0
-901 -475 -346 0
-902 -476 -347 0
-903 -477 -348 0
-901 -478 -349 0
-902 -479 -350 0
-903 -480 -351 0
-901 -481 -352 0
-902 -482 -353 0
-903 -483 -354 0
-901 -484 -355 0
-902 -485 -356 0
-903 -486 -357 0
-901 -487 -358 0
-902 -488 -359 0
-903 -489 -360 0
-901 -490 -361 0
-902 -491 -362 0
-903 -492 -363 0
-901 -493 -364 0
-902 -494 -365 0
-903 -495 -366 0
-901 -496 -367 0
-902 -497 -368 0
-903 -498 -369 0
-901 -499 -370 0
-902 -500 -371 0
-903 -501 -372 0
-901 -502 -373 0
-902 -503 -374 0
-903 -504 -375 0
-901 -505 -376 0
-902 -506 -377 0
-903 -507 -378 0
-901 -508 -379 0
-902 -509 -380 0
-903 -510 -381 0
-901 -511 -382 0
-902 -512 -383 0
-903 -513 -384 0
-901 -514 -385 0
-902 -515 -386 0
-903 -516 -387 0
-901 -517 -388 0
-902 -518 -389 0
-903 -519 -390 0
-901 -520 -391 0
-902 -521 -392 0
-903 -522 -393 0
-901 -523 -394 0
-902 -524 -395 0
-903 -525 -396 0
-901 -526 -397 0
-902 -527 -398 0
-903 -528 -399 0
-901 -529 -400 0
-902 -530 -401 0
-903 -531 -402 0
-901 -532 -403 0
-902 -533 -404 0
-903 -534 -405 0
-901 -535 -406 0
-902 -536 -407 0
-903 -537 -408 0
-901 -538 -409 0
-902 -539 -410 0
-903 -540 -411 0
-901 -541 -412 0
-902 -542 -413 0
-903 -543 -414 0
-901 -544 -415 0
-902 -545 -416 0
-903 -546 -417 0
-901 -547 -418 0
-902 -548 -419 0
-903 -549 -420 0
-901 -550 -421 0
-902 -551 -422 0
-903 -552 -423 0
-901 -553 -424 0
-902 -554 -425 0
-903 -555 -426 0
-901 -556 -427 0
-902 -557 -428 0
-903 -558 -429 0
-901 -559 -430 0
-902 -560 -431 0
-903 -561 -432 0
-901 -562 -433 0
-902 -563 -434 0
-903 -564 -435 0
-901 -565 -436 0
-902 -566 -437 0
-903 -567 -438 0
-901 -568 -439 0
-902 -569 -440 0
-903 -570 -441 0
-901 -571 -442 0
-902 -572 -443 0
-903 -573 -444 0
-901 -574 -445 0
-902 -575 -446 0
-903 -576 -447 0
-901 -577 -448 0
-902 -578 -449 0
-903 -579 -450 0
-901 -580 -451 0
-902 -581 -452 0
-903 -582 -453 0
-901 -583 -454 0
-902 -584 -455 0
-903 -585 -456 0
-901 -586 -457 0
-902 -587 -458 0
-903 -588 -459 0
-901 -589 -460 0
-902 -590 -461 0
-903 -591 -462 0
-901 -592 -463 0
-902 -593 -464 0
-903 -594 -465 0
-901 -595 -466 0
-902 -596 -467 0
-903 -597 -468 0
-901 -598 -469 0
-902 -599 -470 0
-903 -600 -471 0
-901 -601 -472 0
-902 -602 -473 0
-903 -603 -474 0
-901 -604 -475 0
-902 -605 -476 0
-903 -606 -477 0
-901 -607 -478 0
-902 -608 -479 0
-903 -609 -480 0
-901 -610 -481 0
-902 -611 -482 0
-903 -612 -483 0
-901 -613 -484 0
-902 -614 -485 0
-903 -615 -486 0
-901 -616 -487 0
-902 -617 -488 0
-903 -618 -489 0
-901 -619 -490 0
-902 -620 -491 0
-903 -621 -492 0
-901 -622 -493 0
-902 -623 -494 0
-903 -624 -495 0
-901 -625 -496 0
-902 -626 -497 0
-903 -627 -498 0
-901 -628 -499 0
-902 -629 -500 0
-903 -630 -501 0
-901 -631 -502 0
-902 -632 -503 0
-903 -633 -504 0
-901 -634 -505 0
-902 -635 -506 0
-903 -636 -507 0
-901 -637 -508 0
-902 -638 -509 0
-903 -639 -510 0
-901 -640 -511 0
-902 -641 -512 0
-903 -642 -513 0
-901 -643 -514 0
-902 -644 -515 0
-903 -645 -516 0
-901 -646 -517 0
-902 -647 -518 0
-903 -648 -519 0
-901 -649 -520 0
-902 -650 -521 0
-903 -651 -522 0
-901 -652 -523 0
-902 -653 -524 0
-903 -654 -525 0
-901 -655 -526 0
-902 -656 -527 0
-903 -657 -528 0
-901 -658 -529 0
-902 -659 -530 0
-903 -660 -531 0
-901 -661 -532 0
-902 -662 -533 0
-903 -663 -534 0
-901 -664 -535 0
-902 -665 -536 0
-903 -666 -537 0
-901 -667 -538 0
-902 -668 -539 0
-903 -669 -540 0
-901 -670 -541 0
-902 -671 -542 0
-903 -672 -543 0
-901 -673 -544 0
-902 -674 -545 0
-903 -675 -546 0
-901 -676 -547 0
-902 -677 -548 0
-903 -678 -549 0
-901 -679 -550 0
-902 -680 -551 0
-903 -681 -552 0
-901 -682 -553 0
-902 -683 -554 0
-903 -684 -555 0
-901 -685 -556 0
-902 -686 -557 0
-903 -687 -558 0
-901 -688 -559 0
-902 -689 -560 0
-903 -690 -561 0
-901 -691 -562 0
-902 -692 -563 0
-903 -693 -564 0
-901 -694 -565 0
-902 -695 -566 0
-903 -696 -567 0
-901 -697 -568 0
-902 -698 -569 0
-903 -699 -570 0
-901 -700 -571 0
-902 -701 -572 0
-903 -702 -573 0
-901 -703 -574 0
-902 -704 -575 0
-903 -705 -576 0
-901 -706 -577 0
-902 -707 -578 0
-903 -708 -579 0
-901 -709 -580 0
-902 -710 -581 0
-903 -711 -582 0
-901 -712 -583 0
-902 -713 -584 0
-903 -714 -585 0
-901 -715 -586 0
-902 -716 -587 0
-903 -717 -588 0
-901 -718 -589 0
-902 -719 -590 0
-903 -720 -591 0
-901 -721 -592 0
-902 -722 -593 0
-903 -723 -594 0
-901 -724 -595 0
-902 -725 -596 0
-903 -726 -597 0
-901 -727 -598 0
-902 -728 -599 0
-903 -729 -600 0
-901 -730 -601 0
-902 -731 -602 0
-903 -732 -603 0
-901 -733 -604 0
-902 -734 -605 0
-903 -735 -606 0
-901 -736 -607 0
-902 -737 -608 0
-903 -738 -609 0
-901 -739 -610 0
-902 -740 -611 0
-903 -741 -612 0
-901 -742 -613 0
-902 -743 -614 0
-903 -744 -615 0
-901 -745 -616 0
-902 -746 -617 0
-903 -747 -618 0
-901 -748 -619 0
-902 -749 -620 0
-903 -750 -621 0
-901 -751 -622 0
-902 -752 -623 0
-903 -753 -624 0
-901 -754 -625 0
-902 -755 -626 0
-903 -756 -627 0
-901 -757 -628 0
-902 -758 -629 0
-903 -759 -630 0
-901 -760 -631 0
-902 -761 -632 0
-903 -762 -633 0
-901 -763 -634 0
-902 -764 -635 0
-903 -765 -636 0
-901 -766 -637 0
-902 -767 -638 0
-903 -768 -639 0
-901 -769 -640 0
-902 -770 -641 0
-903 -771 -642 0
-901 -772 -643 0
-902 -773 -644 0
-903 -774 -645 0
-901 -775 -646 0
-902 -776 -647 0
-903 -777 -648 0
-901 -778 -649 0
-902 -779 -650 0
-903 -780 -651 0
-901 -781 -652 0
-902 -782 -653 0
-903 -783 -654 0
-901 -784 -655 0
-902 -785 -656 0
-903 -786 -657 0
-901 -787 -658 0
-902 -788 -659 0
-903 -789 -660 0
-901 -790 -661 0
-902 -791 -662 0
-903 -792 -663 0
-901 -793 -664 0
-902 -794 -665 0
-903 -795 -666 0
-901 -796 -667 0
-902 -797 -668 0
-903 -798 -669 0
-901 -799 -670 0
-902 -800 -671 0
-903 -801 -672 0
-901 -802 -673 0
-902 -803 -674 0
-903 -804 -675 0
-901 -805 -676 0
-902 -806 -677 0
-903 -807 -678 0
-901 -808 -679 0
-902 -809 -680 0
-903 -810 -681 0
-901 -811 -682 0
-902 -812 -683 0
-903 -813 -684 0
-901 -814 -685 0
-902 -815 -686 0
-903 -816 -687 0
-901 -817 -688 0
-902 -818 -689 0
-903 -819 -690 0
-901 -820 -691 0
-902 -821 -692 0
-903 -822 -693 0
-901 -823 -694 0
-902 -824 -695 0
-903 -825 -696 0
-901 -826 -697 0
-902 -827 -698 0
-903 -828 -699 0
-901 -829 -700 0
-902 -830 -701 0
-903 -831 -702 0
-901 -832 -703 0
-902 -833 -704 0
-903 -834 -705 0
-901 -835 -706 0
-902 -836 -707 0
-903 -837 -708 0
-901 -838 -709 0
-902 -839 -710 0
-903 -840 -711 0
-901 -841 -712 0
-902 -842 -713 0
-903 -843 -714 0
-901 -844 -715 0
-902 -845 -716 0
-903 -846 -717 0
-901 -847 -718 0
-902 -848 -719 0
-903 -849 -720 0
-901 -850 -721 0
-902 -851 -722 0
-903 -852 -723 0
-901 -853 -724 0
-902 -854 -725 0
-903 -855 -726 0
-901 -856 -727 0
-902 -857 -728 0
-903 -858 -729 0
-901 -859 -730 0
-902 -860 -731 0
-903 -861 -732 0
-901 -862 -733 0
-902 -863 -734 0
-903 -864 -735 0
-901 -865 -736 0
-902 -866 -737 0
-903 -867 -738 0
-901 -868 -739 0
-902 -869 -740 0
-903 -870 -741 0
-901 -871 -742 0
-902 -872 -743 0
-903 -873 -744 0
-901 -874 -745 0
-902 -875 -746 0
-903 -876 -747 0
-901 -877 -748 0
-902 -878 -749 0
-903 -879 -750 0
-901 -880 -751 0
-902 -881 -752 0
-903 -882 -753 0
-901 -883 -754 0
-902 -884 -755 0
-903 -885 -756 0
-901 -886 -757 0
-902 -887 -758 0
-903 -888 -759 0
-901 -889 -760 0
-902 -890 -761 0
-903 -891 -762 0
-901 -892 -763 0
-902 -893 -764 0
-903 -894 -765 0
-901 -895 -766 0
-902 -896 -767 0
-903 -897 -768 0
-901 -898 -769 0
-902 -899 -770 0
-903 -900 -771 0
-901 -772 0
-902 -773 0
-903 -774 0
-904 -901 -775 0
-905 -902 -776 0
-906 -903 -777 0
-907 -901 -778 0
-908 -902 -779 0
-909 -903 -780 0
-910 -901 -781 0
-911 -902 -782 0
-912 -903 -783 0
-913 -901 -784 0
-914 -902 -785 0
-915 -903 -786 0
-916 -901 -787 0
-917 -902 -788 0
-918 -903 -789 0
-919 -901 -790 0
-920 -902 -791 0
-921 -903 -792 0
-922 -901 -793 0
-923 -902 -794 0
-924 -903 -795 0
-925 -901 -796 0
-926 -902 -797 0
-927 -903 -798 0
-928 -901 -799 0
-929 -902 -800 0
-930 -903 -801 0
-931 -901 -802 0
-932 -902 -803 0
-933 -903 -804 0
-934 -901 -805 0
-935 -902 -806 0
-936 -903 -807 0
-937 -901 -808 0
-938 -902 -809 0
-939 -903 -810 0
-940 -901 -811 0
-941 -902 -812 0
-942 -903 -813 0
-943 -901 -814 0
-944 -902 -815 0
-945 -903 -816 0
-946 -901 -817 0
-947 -902 -818 0
-948 -903 -819 0
-949 -901 -820 0
-950 -902 -821 0
-951 -903 -822 0
-952 -901 -823 0
-953 -902 -824 0
-954 -903 -825 0
-955 -901 -826 0
-956 -902 -827 0
-957 -903 -828 0
-958 -901 -829 0
-959 -902 -830 0
-960 -903 -831 0
-961 -901 -832 0
-962 -902 -833 0
-963 -903 -834 0
-964 -901 -835 0
-965 -902 -836 0
-966 -903 -837 0
-967 -901 -838 0
-968 -902 -839 0
-969 -903 -840 0
-970 -901 -841 0
-971 -902 -842 0
-972 -903 -843 0
-973 -901 -844 0
-974 -902 -845 0
-975 -903 -846 0
-976 -901 -847 0
-977 -902 -848 0
-978 -903 -849 0
-979 -901 -850 0
-980 -902 -851 0
-981 -903 -852 0
-982 -901 -853 0
-983 -902 -854 0
-984 -903 -855 0
-985 -901 -856 0
-986 -902 -857 0
-987 -903 -858 0
-988 -901 -859 0
-989 -902 -860 0
-990 -903 -861 0
-991 -901 -862 0
-992 -902 -863 0
-993 -903 -864 0
-994 -901 -865 0
-995 -902 -866 0
-996 -903 -867 0
-997 -901 -868 0
-998 -902 -869 0
-999 -903 -870 0
-1000 -901 -871 0
-1001 -902 -872 0
-1002 -903 -873 0
-1003 -901 -874 0
-1004 -902 -875 0
-1005 -903 -876 0
-1006 -901 -877 0
-1007 -902 -878 0
-1008 -903 -879 0
-1009 -901 -880 0
-1010 -902 -881 0
-1011 -903 -882 0
-1012 -901 -883 0
-1013 -902 -884 0
-1014 -903 -885 0
-1015 -901 -886 0
-1016 -902 -887 0
-1017 -903 -888 0
-1018 -901 -889 0
-1019 -902 -890 0
-1020 -903 -891 0
-1021 -901 -892 0
-1022 -902 -893 0
-1023 -903 -894 0
-1024 -901 -895 0
-1025 -902 -896 0
-1026 -903 -897 0
-1027 -901 -898 0
-1028 -902 -899 0
-1029 -903 -900 0
-922 -133 -1 0
-923 -134 -2 0
-924 -135 -3 0
-922 -136 -4 0
-923 -137 -5 0
-924 -138 -6 0
-922 -139 -7 0
-923 -140 -8 0
-924 -141 -9 0
-922 -142 -10 0
-923 -143 -11 0
-924 -144 -12 0
-922 -145 -13 0
-923 -146 -14 0
-924 -147 -15 0
-922 -148 -16 0
-923 -149 -17 0
-924 -150 -18 0
-922 -151 -19 0
-923 -152 -20 0
-924 -153 -21 0
-922 -154 -22 0
-923 -155 -23 0
-924 -156 -24 0
-922 -157 -25 0
-923 -158 -26 0
-924 -159 -27 0
-922 -160 -28 0
-923 -161 -29 0
-924 -162 -30 0
-922 -163 -31 0
-923 -164 -32 0
-924 -165 -33 0
-922 -166 -34 0
-923 -167 -35 0
-924 -168 -36 0
-922 -169 -37 0
-923 -170 -38 0
-924 -171 -39 0
-922 -172 -40 0
-923 -173 -41 0
-924 -174 -42 0
-922 -175 -43 0
-923 -176 -44 0
-924 -177 -45 0
-922 -178 -46 0
-923 -179 -47 0
-924 -180 -48 0
-922 -181 -49 0
-923 -182 -50 0
-924 -183 -51 0
-922 -184 -52 0
-923 -185 -53 0
-924 -186 -54 0
-922 -187 -55 0
-923 -188 -56 0
-924 -189 -57 0
-922 -190 -58 0
-923 -191 -59 0
-924 -192 -60 0
-922 -193 -61 0
-923 -194 -62 0
-924 -195 -63 0
-922 -196 -64 0
-923 -197 -65 0
-924 -198 -66 0
-922 -199 -67 0
-923 -200 -68 0
-924 -201 -69 0
-922 -202 -70 0
-923 -203 -71 0
-924 -204 -72 0
-922 -205 -73 0
-923 -206 -74 0
-924 -207 -75 0
-922 -208 -76 0
-923 -209 -77 0
-924 -210 -78 0
-922 -211 -79 0
-923 -212 -80 0
-924 -213 -81 0
-922 -214 -82 0
-923 -215 -83 0
-924 -216 -84 0
-922 -217 -85 0
-923 -218 -86 0
-924 -219 -87 0
-922 -220 -88 0
-923 -221 -89 0
-924 -222 -90 0
-922 -223 -91 0
-923 -224 -92 0
-924 -225 -93 0
-922 -226 -94 0
-923 -227 -95 0
-924 -228 -96 0
-922 -229 -97 0
-923 -230 -98 0
-924 -231 -99 0
-922 -232 -100 0
-923 -233 -101 0
-924 -234 -102 0
-922 -235 -103 0
-923 -236 -104 0
-924 -237 -105 0
-922 -238 -106 0
-923 -239 -107 0
-924 -240 -108 0
-922 -241 -109 0
-923 -242 -110 0
-924 -243 -111 0
-922 -244 -112 0
-923 -245 -113 0
-924 -246 -114 0
-922 -247 -115 0
-923 -248 -116 0
-924 -249 -117 0
-922 -250 -118 0
-923 -251 -119 0
-924 -252 -120 0
-922 -253 -121 0
-923 -254 -122 0
-924 -255 -123 0
-922 -256 -124 0
-923 -257 -125 0
-924 -258 -126 0
-922 -259 -127 0
-923 -260 -128 0
-924 -261 -129 0
-922 -262 -130 0
-923 -263 -131 0
-924 -264 -132 0
-922 -265 -133 0
-923 -266 -134 0
-924 -267 -135 0
-922 -268 -136 0
-923 -269 -137 0
-924 -270 -138 0
-922 -271 -139 0
-923 -272 -140 0
-924 -273 -141 0
-922 -274 -142 0
-923 -275 -143 0
-924 -276 -144 0
-922 -277 -145 0
-923 -278 -146 0
-924 -279 -147 0
-922 -280 -148 0
-923 -281 -149 0
-924 -282 -150 0
-922 -283 -151 0
-923 -284 -152 0
-924 -285 -153 0
-922 -286 -154 0
-923 -287 -155 0
-924 -288 -156 0
-922 -289 -157 0
-923 -290 -158 0
-924 -291 -159 0
-922 -292 -160 0
-923 -293 -161 0
-924 -294 -162 0
-922 -295 -163 0
-923 -296 -164 0
-924 -297 -165 0
-922 -298 -166 0
-923 -299 -167 0
-924 -300 -168 0
-922 -301 -169 0
-923 -302 -170 0
-924 -303 -171 0
-922 -304 -172 0
-923 -305 -173 0
-924 -306 -174 0
-922 -307 -175 0
-923 -308 -176 0
-924 -309 -177 0
-922 -310 -178 0
-923 -311 -179 0
-924 -312 -180 0
-922 -313 -181 0
-923 -314 -182 0
-924 -315 -183 0
-922 -316 -184 0
-923 -317 -185 0
-924 -318 -186 0
-922 -319 -187 0
-923 -320 -188 0
-924 -321 -189 0
-922 -322 -190 0
-923 -323 -191 0
-924 -324 -192 0
-922 -325 -193 0
-923 -326 -194 0
-924 -327 -195 0
-922 -328 -196 0
-923 -329 -197 0
-924 -330 -198 0
-922 -331 -199 0
-923 -332 -200 0
-924 -333 -201 0
-922 -334 -202 0
-923 -335 -203 0
-924 -336 -204 0
-922 -337 -205 0
-923 -338 -206 0
-924 -339 -207 0
-922 -340 -208 0
-923 -341 -209 0
-924 -342 -210 0
-922 -343 -211 0
-923 -344 -212 0
-924 -345 -213 0
-922 -346 -214 0
-923 -347 -215 0
-924 -348 -216 0
-922 -349 -217 0
-923 -350 -218 0
-924 -351 -219 0
-922 -352 -220 0
-923 -353 -221 0
-924 -354 -222 0
-922 -355 -223 0
-923 -356 -224 0
-924 -357 -225 0
-922 -358 -226 0
-923 -359 -227 0
-924 -360 -228 0
-922 -361 -229 0
-923 -362 -230 0
-924 -363 -231 0
-922 -364 -232 0
-923 -365 -233 0
-924 -366 -234 0
-922 -367 -235 0
-923 -368 -236 0
-924 -369 -237 0
-922 -370 -238 0
-923 -371 -239 0
-924 -372 -240 0
-922 -373 -241 0
-923 -374 -242 0
-924 -375 -243 0
-922 -376 -244 0
-923 -377 -245 0
-924 -378 -246 0
-922 -379 -247 0
-923 -380 -248 0
-924 -381 -249 0
-922 -382 -250 0
-923 -383 -251 0
-924 -384 -252 0
-922 -385 -253 0
-923 -386 -254 0
-924 -387 -255 0
-922 -388 -256 0
-923 -389 -257 0
-924 -390 -258 0
-922 -391 -259 0
-923 -392 -260 0
-924 -393 -261 0
-922 -394 -262 0
-923 -395 -263 0
-924 -396 -264 0
-922 -397 -265 0
-923 -398 -266 0
-924 -399 -267 0
-922 -400 -268 0
-923 -401 -269 0
-924 -402 -270 0
-922 -403 -271 0
-923 -404 -272 0
-924 -405 -273 0
-922 -406 -274 0
-923 -407 -275 0
-924 -408 -276 0
-922 -409 -277 0
-923 -410 -278 0
-924 -411 -279 0
-922 -412 -280 0
-923 -413 -281 0
-924 -414 -282 0
-922 -415 -283 0
-923 -416 -284 0
-924 -417 -285 0
-922 -418 -286 0
-923 -419 -287 0
-924 -420 -288 0
-922 -421 -289 0
-923 -422 -290 0
-924 -423 -291 0
-922 -424 -292 0
-923 -425 -293 0
-924 -426 -294 0
-922 -427 -295 0
-923 -428 -296 0
-924 -429 -297 0
-922 -430 -298 0
-923 -431 -299 0
-924 -432 -300 0
-922 -433 -301 0
-923 -434 -302 0
-924 -435 -303 0
-922 -436 -304 0
-923 -437 -305 0
-924 -438 -306 0
-922 -439 -307 0
-923 -440 -308 0
-924 -441 -309 0
-922 -442 -310 0
-923 -443 -311 0
-924 -444 -312 0
-922 -445 -313 0
-923 -446 -314 0
-924 -447 -315 0
-922 -448 -316 0
-923 -449 -317 0
-924 -450 -318 0
-922 -451 -319 0
-923 -452 -320 0
-924 -453 -321 0
-922 -454 -322 0
-923 -455 -323 0
-924 -456 -324 0
-922 -457 -325 0
-923 -458 -326 0
-924 -459 -327 0
-922 -460 -328 0
-923 -461 -329 0
-924 -462 -330 0
-922 -463 -331 0
-923 -464 -332 0
-924 -465 -333 0
-922 -466 -334 0
-923 -467 -335 0
-924 -468 -336 0
-922 -469 -337 0
-923 -470 -338 0
-924 -471 -339 0
-922 -472 -340 0
-923 -473 -341 0
-924 -474 -342 0
-922 -475 -343 0
-923 -476 -344 0
-924 -477 -345 0
-922 -478 -346 0
-923 -479 -347 0
-924 -480 -348 0
-922 -481 -349 0
-923 -482 -350 0
-924 -483 -351 0
-922 -484 -352 0
-923 -485 -353 0
-924 -486 -354 0
-922 -487 -355 0
-923 -488 -356 0
-924 -489 -357 0
-922 -490 -358 0
-923 -491 -359 0
-924 -492 -360 0
-922 -493 -361 0
-923 -494 -362 0
-924 -495 -363 0
-922 -496 -364 0
-923 -497 -365 0
-924 -498 -366 0
-922 -499 -367 0
-923 -500 -368 0
-924 -501 -369 0
-922 -502 -370 0
-923 -503 -371 0
-924 -504 -372 0
-922 -505 -373 0
-923 -506 -374 0
-924 -507 -375 0
-922 -508 -376 0
-923 -509 -377 0
-924 -510 -378 0
-922 -511 -379 0
-923 -512 -380 0
-924 -513 -381 0
-922 -514 -382 0
-923 -515 -383 0
-924 -516 -384 0
-922 -517 -385 0
-923 -518 -386 0
-924 -519 -387 0
-922 -520 -388 0
-923 -521 -389 0
-924 -522 -390 0
-922 -523 -391 0
-923 -524 -392 0
-924 -525 -393 0
-922 -526 -394 0
-923 -527 -395 0
-924 -528 -396 0
-922 -529 -397 0
-923 -530 -398 0
-924 -531 -399 0
-922 -532 -400 0
-923 -533 -401 0
-924 -534 -402 0
-922 -535 -403 0
-923 -536 -404 0
-924 -537 -405 0
-922 -538 -406 0
-923 -539 -407 0
-924 -540 -408 0
-922 -541 -409 0
-923 -542 -410 0
-924 -543 -411 0
-922 -544 -412 0
-923 -545 -413 0
-924 -546 -414 0
-922 -547 -415 0
-923 -548 -416 0
-924 -549 -417 0
-922 -550 -418 0
-923 -551 -419 0
-924 -552 -420 0
-922 -553 -421 0
-923 -554 -422 0
-924 -555 -423 0
-922 -556 -424 0
-923 -557 -425 0
-924 -558 -426 0
-922 -559 -427 0
-923 -560 -428 0
-924 -561 -429 0
-922 -562 -430 0
-923 -563 -431 0
-924 -564 -432 0
-922 -565 -433 0
-923 -566 -434 0
-924 -567 -435 0
-922 -568 -436 0
-923 -569 -437 0
-924 -570 -438 0
-922 -571 -439 0
-923 -572 -440 0
-924 -573 -441 0
-922 -574 -442 0
-923 -575 -443 0
-924 -576 -444 0
-922 -577 -445 0
-923 -578 -446 0
-924 -579 -447 0
-922 -580 -448 0
-923 -581 -449 0
-924 -582 -450 0
-922 -583 -451 0
-923 -584 -452 0
-924 -585 -453 0
-922 -586 -454 0
-923 -587 -455 0
-924 -588 -456 0
-922 -589 -457 0
-923 -590 -458 0
-924 -591 -459 0
-922 -592 -460 0
-923 -593 -461 0
-924 -594 -462 0
-922 -595 -463 0
-923 -596 -464 0
-924 -597 -465 0
-922 -598 -466 0
-923 -599 -467 0
-924 -600 -468 0
-922 -601 -469 0
-923 -602 -470 0
-924 -603 -471 0
-922 -604 -472 0
-923 -605 -473 0
-924 -606 -474 0
-922 -607 -475 0
-923 -608 -476 0
-924 -609 -477 0
-922 -610 -478 0
-923 -611 -479 0
-924 -612 -480 0
-922 -613 -481 0
-923 -614 -482 0
-924 -615 -483 0
-922 -616 -484 0
-923 -617 -485 0
-924 -618 -486 0
-922 -619 -487 0
-923 -620 -488 0
-924 -621 -489 0
-922 -622 -490 0
-923 -623 -491 0
-924 -624 -492 0
-922 -625 -493 0
-923 -626 -494 0
-924 -627 -495 0
-922 -628 -496 0
-923 -629 -497 0
-924 -630 -498 0
-922 -631 -499 0
-923 -632 -500 0
-924 -633 -501 0
-922 -634 -502 0
-923 -635 -503 0
-924 -636 -504 0
-922 -637 -505 0
-923 -638 -506 0
-924 -639 -507 0
-922 -640 -508 0
-923 -641 -509 0
-924 -642 -510 0
-922 -643 -511 0
-923 -644 -512 0
-924 -645 -513 0
-922 -646 -514 0
-923 -647 -515 0
-924 -648 -516 0
-922 -649 -517 0
-923 -650 -518 0
-924 -651 -519 0
-922 -652 -520 0
-923 -653 -521 0
-924 -654 -522 0
-922 -655 -523 0
-923 -656 -524 0
-924 -657 -525 0
-922 -658 -526 0
-923 -659 -527 0
-924 -660 -528 0
-922 -661 -529 0
-923 -662 -530 0
-924 -663 -531 0
-922 -664 -532 0
-923 -665 -533 0
-924 -666 -534 0
-922 -667 -535 0
-923 -668 -536 0
-924 -669 -537 0
-922 -670 -538 0
-923 -671 -539 0
-924 -672 -540 0
-922 -673 -541 0
-923 -674 -542 0
-924 -675 -543 0
-922 -676 -544 0
-923 -677 -545 0
-924 -678 -546 0
-922 -679 -547 0
-923 -680 -548 0
-924 -681 -549 0
-922 -682 -550 0
-923 -683 -551 0
-924 -684 -552 0
-922 -685 -553 0
-923 -686 -554 0
-924 -687 -555 0
-922 -688 -556 0
-923 -689 -557 0
-924 -690 -558 0
-922 -691 -559 0
-923 -692 -560 0
-924 -693 -561 0
-922 -694 -562 0
-923 -695 -563 0
-924 -696 -564 0
-922 -697 -565 0
-923 -698 -566 0
-924 -699 -567 0
-922 -700 -568 0
-923 -701 -569 0
-924 -702 -570 0
-922 -703 -571 0
-923 -704 -572 0
-924 -705 -573 0
-922 -706 -574 0
-923 -707 -575 0
-924 -708 -576 0
-922 -709 -577 0
-923 -710 -578 0
-924 -711 -579 0
-922 -712 -580 0
-923 -713 -581 0
-924 -714 -582 0
-922 -715 -583 0
-923 -716 -584 0
-924 -717 -585 0
-922 -718 -586 0
-923 -719 -587 0
-924 -720 -588 0
-922 -721 -589 0
-923 -722 -590 0
-924 -723 -591 0
-922 -724 -592 0
-923 -725 -593 0
-924 -726 -594 0
-922 -727 -595 0
-923 -728 -596 0
-924 -729 -597 0
-922 -730 -598 0
-923 -731 -599 0
-924 -732 -600 0
-922 -733 -601 0
-923 -734 -602 0
-924 -735 -603 0
-922 -736 -604 0
-923 -737 -605 0
-924 -738 -606 0
-922 -739 -607 0
-923 -740 -608 0
-924 -741 -609 0
-922 -742 -610 0
-923 -743 -611 0
-924 -744 -612 0
-922 -745 -613 0
-923 -746 -614 0
-924 -747 -615 0
-922 -748 -616 0
-923 -749 -617 0
-924 -750 -618 0
-922 -751 -619 0
-923 -752 -620 0
-924 -753 -621 0
-922 -754 -622 0
-923 -755 -623 0
-924 -756 -624 0
-922 -757 -625 0
-923 -758 -626 0
-924 -759 -627 0
-922 -760 -628 0
-923 -761 -629 0
-924 -762 -630 0
-922 -763 -631 0
-923 -764 -632 0
-924 -765 -633 0
-922 -766 -634 0
-923 -767 -635 0
-924 -768 -636 0
-922 -769 -637 0
-923 -770 -638 0
-924 -771 -639 0
-922 -772 -640 0
-923 -773 -641 0
-924 -774 -642 0
-922 -775 -643 0
-923 -776 -644 0
-924 -777 -645 0
-922 -778 -646 0
-923 -779 -647 0
-924 -780 -648 0
-922 -781 -649 0
-923 -782 -650 0
-924 -783 -651 0
-922 -784 -652 0
-923 -785 -653 0
-924 -786 -654 0
-922 -787 -655 0
-923 -788 -656 0
-924 -789 -657 0
-922 -790 -658 0
-923 -791 -659 0
-924 -792 -660 0
-922 -793 -661 0
-923 -794 -662 0
-924 -795 -663 0
-922 -796 -664 0
-923 -797 -665 0
-924 -798 -666 0
-922 -799 -667 0
-923 -800 -668 0
-924 -801 -669 0
-922 -802 -670 0
-923 -803 -671 0
-924 -804 -672 0
-922 -805 -673 0
-923 -806 -674 0
-924 -807 -675 0
-922 -808 -676 0
-923 -809 -677 0
-924 -810 -678 0
-922 -811 -679 0
-923 -812 -680 0
-924 -813 -681 0
-922 -814 -682 0
-923 -815 -683 0
-924 -816 -684 0
-922 -817 -685 0
-923 -818 -686 0
-924 -819 -687 0
-922 -820 -688 0
-923 -821 -689 0
-924 -822 -690 0
-922 -823 -691 0
-923 -824 -692 0
-924 -825 -693 0
-922 -826 -694 0
-923 -827 -695 0
-924 -828 -696 0
-922 -829 -697 0
-923 -830 -698 0
-924 -831 -699 0
-922 -832 -700 0
-923 -833 -701 0
-924 -834 -702 0
-922 -835 -703 0
-923 -836 -704 0
-924 -837 -705 0
-922 -838 -706 0
-923 -839 -707 0
-924 -840 -708 0
-922 -841 -709 0
-923 -842 -710 0
-924 -843 -711 0
-922 -844 -712 0
-923 -845 -713 0
-924 -846 -714 0
-922 -847 -715 0
-923 -848 -716 0
-924 -849 -717 0
-922 -850 -718 0
-923 -851 -719 0
-924 -852 -720 0
-922 -853 -721 0
-923 -854 -722 0
-924 -855 -723 0
-922 -856 -724 0
-923 -857 -725 0
-924 -858 -726 0
-922 -859 -727 0
-923 -860 -728 0
-924 -861 -729 0
-922 -862 -730 0
-923 -863 -731 0
-924 -864 -732 0
-922 -865 -733 0
-923 -866 -734 0
-924 -867 -735 0
-922 -868 -736 0
-923 -869 -737 0
-924 -870 -738 0
-922 -871 -739 0
-923 -872 -740 0
-924 -873 -741 0
-922 -874 -742 0
-923 -875 -743 0
-924 -876 -744 0
-922 -877 -745 0
-923 -878 -746 0
-924 -879 -747 0
-922 -880 -748 0
-923 -881 -749 0
-924 -882 -750 0
-922 -883 -751 0
-923 -884 -752 0
-924 -885 -753 0
-922 -886 -754 0
-923 -887 -755 0
-924 -888 -756 0
-922 -889 -757 0
-923 -890 -758 0
-924 -891 -759 0
-922 -892 -760 0
-923 -893 -761 0
-924 -894 -762 0
-922 -895 -763 0
-923 -896 -764 0
-924 -897 -765 0
-922 -898 -766 0
-923 -899 -767 0
-924 -900 -768 0
-922 -901 -769 0
-923 -902 -770 0
-924 -903 -771 0
-922 -904 -772 0
-923 -905 -773 0
-924 -906 -774 0
-922 -907 -775 0
-923 -908 -776 0
-924 -909 -777 0
-922 -910 -778 0
-923 -911 -779 0
-924 -912 -780 0
-922 -913 -781 0
-923 -914 -782 0
-924 -915 -783 0
-922 -916 -784 0
-923 -917 -785 0
-924 -918 -786 0
-922 -919 -787 0
-923 -920 -788 0
-924 -921 -789 0
-922 -790 0
-923 -791 0
-924 -792 0
-925 -922 -793 0
-926 -923 -794 0
-927 -924 -795 0
-928 -922 -796 0
-929 -923 -797 0
-930 -924 -798 0
-931 -922 -799 0
-932 -923 -800 0
-933 -924 -801 0
-934 -922 -802 0
-935 -923 -803 0
-936 -924 -804 0
-937 -922 -805 0
-938 -923 -806 0
-939 -924 -807 0
-940 -922 -808 0
-941 -923 -809 0
-942 -924 -810 0
-943 -922 -811 0
-944 -923 -812 0
-945 -924 -813 0
-946 -922 -814 0
-947 -923 -815 0
-948 -924 -816 0
-949 -922 -817 0
-950 -923 -818 0
-951 -924 -819 0
-952 -922 -820 0
-953 -923 -821 0
-954 -924 -822 0
-955 -922 -823 0
-956 -923 -824 0
-957 -924 -825 0
-958 -922 -826 0
-959 -923 -827 0
-960 -924 -828 0
-961 -922 -829 0
-962 -923 -830 0
-963 -924 -831 0
-964 -922 -832 0
-965 -923 -833 0
-966 -924 -834 0
-967 -922 -835 0
-968 -923 -836 0
-969 -924 -837 0
-970 -922 -838 0
-971 -923 -839 0
-972 -924 -840 0
-973 -922 -841 0
-974 -923 -842 0
-975 -924 -843 0
-976 -922 -844 0
-977 -923 -845 0
-978 -924 -846 0
-979 -922 -847 0
-980 -923 -848 0
-981 -924 -849 0
-982 -922 -850 0
-983 -923 -851 0
-984 -924 -852 0
-985 -922 -853 0
-986 -923 -854 0
-987 -924 -855 0
-988 -922 -856 0
-989 -923 -857 0
-990 -924 -858 0
-991 -922 -859 0
-992 -923 -860 0
-993 -924 -861 0
-994 -922 -862 0
-995 -923 -863 0
-996 -924 -864 0
-997 -922 -865 0
-998 -923 -866 0
-999 -924 -867 0
-1000 -922 -868 0
-1001 -923 -869 0
-1002 -924 -870 0
-1003 -922 -871 0
-1004 -923 -872 0
-1005 -924 -873 0
-1006 -922 -874 0
-1007 -923 -875 0
-1008 -924 -876 0
-1009 -922 -877 0
-1010 -923 -878 0
-1011 -924 -879 0
-1012 -922 -880 0
-1013 -923 -881 0
-1014 -924 -882 0
-1015 -922 -883 0
-1016 -923 -884 0
-1017 -924 -885 0
-1018 -922 -886 0
-1019 -923 -887 0
-1020 -924 -888 0
-1021 -922 -889 0
-1022 -923 -890 0
-1023 -924 -891 0
-1024 -922 -892 0
-1025 -923 -893 0
-1026 -924 -894 0
-1027 -922 -895 0
-1028 -923 -896 0
-1029 -924 -897 0
-943 -136 -1 0
-944 -137 -2 0
-945 -138 -3 0
-943 -139 -4 0
-944 -140 -5 0
-945 -141 -6 0
-943 -142 -7 0
-944 -143 -8 0
-945 -144 -9 0
-943 -145 -10 0
-944 -146 -11 0
-945 -147 -12 0
-943 -148 -13 0
-944 -149 -14 0
-945 -150 -15 0
-943 -151 -16 0
-944 -152 -17 0
-945 -153 -18 0
-943 -154 -19 0
-944 -155 -20 0
-945 -156 -21 0
-943 -157 -22 0
-944 -158 -23 0
-945 -159 -24 0
-943 -160 -25 0
-944 -161 -26 0
-945 -162 -27 0
-943 -163 -28 0
-944 -164 -29 0
-945 -165 -30 0
-943 -166 -31 0
-944 -167 -32 0
-945 -168 -33 0
-943 -169 -34 0
-944 -170 -35 0
-945 -171 -36 0
-943 -172 -37 0
-944 -173 -38 0
-945 -174 -39 0
-943 -175 -40 0
-944 -176 -41 0
-945 -177 -42 0
-943 -178 -43 0
-944 -179 -44 0
-945 -180 -45 0
-943 -181 -46 0
-944 -182 -47 0
-945 -183 -48 0
-943 -184 -49 0
-944 -185 -50 0
-945 -186 -51 0
-943 -187 -52 0
-944 -188 -53 0
-945 -189 -54 0
-943 -190 -55 0
-944 -191 -56 0
-945 -192 -57 0
-943 -193 -58 0
-944 -194 -59 0
-945 -195 -60 0
-943 -196 -61 0
-944 -197 -62 0
-945 -198 -63 0
-943 -199 -64 0
-944 -200 -65 0
-945 -201 -66 0
-943 -202 -67 0
-944 -203 -68 0
-945 -204 -69 0
-943 -205 -70 0
-944 -206 -71 0
-945 -207 -72 0
-943 -208 -73 0
-944 -209 -74 0
-945 -210 -75 0
-943 -211 -76 0
-944 -212 -77 0
-945 -213 -78 0
-943 -214 -79 0
-944 -215 -80 0
-945 -216 -81 0
-943 -217 -82 0
-944 -218 -83 0
-945 -219 -84 0
-943 -220 -85 0
-944 -221 -86 0
-945 -222 -87 0
-943 -223 -88 0
-944 -224 -89 0
-945 -225 -90 0
-943 -226 -91 0
-944 -227 -92 0
-945 -228 -93 0
-943 -229 -94 0
-944 -230 -95 0
-945 -231 -96 0
-943 -232 -97 0
-944 -233 -98 0
-945 -234 -99 0
-943 -235 -100 0
-944 -236 -101 0
-945 -237 -102 0
-943 -238 -103 0
-944 -239 -104 0
-945 -240 -105 0
-943 -241 -106 0
-944 -242 -107 0
-945 -243 -108 0
-943 -244 -109 0
-944 -245 -110 0
-945 -246 -111 0
-943 -247 -112 0
-944 -248 -113 0
-945 -249 -114 0
-943 -250 -115 0
-944 -251 -116 0
-945 -252 -117 0
-943 -253 -118 0
-944 -254 -119 0
-945 -255 -120 0
-943 -256 -121 0
-944 -257 -122 0
-945 -258 -123 0
-943 -259 -124 0
-944 -260 -125 0
-945 -261 -126 0
-943 -262 -127 0
-944 -263 -128 0
-945 -264 -129 0
-943 -265 -130 0
-944 -266 -131 0
-945 -267 -132 0
-943 -268 -133 0
-944 -269 -134 0
-945 -270 -135 0
-943 -271 -136 0
-944 -272 -137 0
-945 -273 -138 0
-943 -274 -139 0
-944 -275 -140 0
-945 -276 -141 0
-943 -277 -142 0
-944 -278 -143 0
-945 -279 -144 0
-943 -280 -145 0
-944 -281 -146 0
-945 -282 -147 0
-943 -283 -148 0
-944 -284 -149 0
-945 -285 -150 0
-943 -286 -151 0
-944 -287 -152 0
-945 -288 -153 0
-943 -289 -154 0
-944 -290 -155 0
-945 -291 -156 0
-943 -292 -157 0
-944 -293 -158 0
-945 -294 -159 0
-943 -295 -160 0
-944 -296 -161 0
-945 -297 -162 0
-943 -298 -163 0
-944 -299 -164 0
-945 -300 -165 0
-943 -301 -166 0
-944 -302 -167 0
-945 -303 -168 0
-943 -304 -169 0
-944 -305 -170 0
-945 -306 -171 0
-943 -307 -172 0
-944 -308 -173 0
-945 -309 -174 0
-943 -310 -175 0
-944 -311 -176 0
-945 -312 -177 0
-943 -313 -178 0
-944 -314 -179 0
-945 -315 -180 0
-943 -316 -181 0
-944 -317 -182 0
-945 -318 -183 0
-943 -319 -184 0
-944 -320 -185 0
-945 -321 -186 0
-943 -322 -187 0
-944 -323 -188 0
-945 -324 -189 0
-943 -325 -190 0
-944 -326 -191 0
-945 -327 -192 0
-943 -328 -193 0
-944 -329 -194 0
-945 -330 -195 0
-943 -331 -196 0
-944 -332 -197 0
-945 -333 -198 0
-943 -334 -199 0
-944 -335 -200 0
-945 -336 -201 0
-943 -337 -202 0
-944 -338 -203 0
-945 -339 -204 0
-943 -340 -205 0
-944 -341 -206 0
-945 -342 -207 0
-943 -343 -208 0
-944 -344 -209 0
-945 -345 -210 0
-943 -346 -211 0
-944 -347 -212 0
-945 -348 -213 0
-943 -349 -214 0
-944 -350 -215 0
-945 -351 -216 0
-943 -352 -217 0
-944 -353 -218 0
-945 -354 -219 0
-943 -355 -220 0
-944 -356 -221 0
-945 -357 -222 0
-943 -358 -223 0
-944 -359 -224 0
-945 -360 -225 0
-943 -361 -226 0
-944 -362 -227 0
-945 -363 -228 0
-943 -364 -229 0
-944 -365 -230 0
-945 -366 -231 0
-943 -367 -232 0
-944 -368 -233 0
-945 -369 -234 0
-943 -370 -235 0
-944 -371 -236 0
-945 -372 -237 0
-943 -373 -238 0
-944 -374 -239 0
-945 -375 -240 0
-943 -376 -241 0
-944 -377 -242 0
-945 -378 -243 0
-943 -379 -244 0
-944 -380 -245 0
-945 -381 -246 0
-943 -382 -247 0
-944 -383 -248 0
-945 -384 -249 0
-943 -385 -250 0
-944 -386 -251 0
-945 -387 -252 0
-943 -388 -253 0
-944 -389 -254 0
-945 -390 -255 0
-943 -391 -256 0
-944 -392 -257 0
-945 -393 -258 0
-943 -394 -259 0
-944 -395 -260 0
-945 -396 -261 0
-943 -397 -262 0
-944 -398 -263 0
-945 -399 -264 0
-943 -400 -265 0
-944 -401 -266 0
-945 -402 -267 0
-943 -403 -268 0
-944 -404 -269 0
-945 -405 -270 0
-943 -406 -271 0
-944 -407 -272 0
-945 -408 -273 0
-943 -409 -274 0
-944 -410 -275 0
-945 -411 -276 0
-943 -412 -277 0
-944 -413 -278 0
-945 -414 -279 0
-943 -415 -280 0
-944 -416 -281 0
-945 -417 -282 0
-943 -418 -283 0
-944 -419 -284 0
-945 -420 -285 0
-943 -421 -286 0
-944 -422 -287 0
-945 -423 -288 0
-943 -424 -289 0
-944 -425 -290 0
-945 -426 -291 0
-943 -427 -292 0
-944 -428 -293 0
-945 -429 -294 0
-943 -430 -295 0
-944 -431 -296 0
-945 -432 -297 0
-943 -433 -298 0
-944 -434 -299 0
-945 -435 -300 0
-943 -436 -301 0
-944 -437 -302 0
-945 -438 -303 0
-943 -439 -304 0
-944 -440 -305 0
-945 -441 -306 0
-943 -442 -307 0
-944 -443 -308 0
-945 -444 -309 0
-943 -445 -310 0
-944 -446 -311 0
-945 -447 -312 0
-943 -448 -313 0
-944 -449 -314 0
-945 -450 -315 0
-943 -451 -316 0
-944 -452 -317 0
-945 -453 -318 0
-943 -454 -319 0
-944 -455 -320 0
-945 -456 -321 0
-943 -457 -322 0
-944 -458 -323 0
-945 -459 -324 0
-943 -460 -325 0
-944 -461 -326 0
-945 -462 -327 0
-943 -463 -328 0
-944 -464 -329 0
-945 -465 -330 0
-943 -466 -331 0
-944 -467 -332 0
-945 -468 -333 0
-943 -469 -334 0
-944 -470 -335 0
-945 -471 -336 0
-943 -472 -337 0
-944 -473 -338 0
-945 -474 -339 0
-943 -475 -340 0
-944 -476 -341 0
-945 -477 -342 0
-943 -478 -343 0
-944 -479 -344 0
-945 -480 -345 0
-943 -481 -346 0
-944 -482 -347 0
-945 -483 -348 0
-943 -484 -349 0
-944 -485 -350 0
-945 -486 -351 0
-943 -487 -352 0
-944 -488 -353 0
-945 -489 -354 0
-943 -490 -355 0
-944 -491 -356 0
-945 -492 -357 0
-943 -493 -358 0
-944 -494 -359 0
-945 -495 -360 0
-943 -496 -361 0
-944 -497 -362 0
-945 -498 -363 0
-943 -499 -364 0
-944 -500 -365 0
-945 -501 -366 0
-943 -502 -367 0
-944 -503 -368 0
-945 -504 -369 0
-943 -505 -370 0
-944 -506 -371 0
-945 -507 -372 0
-943 -508 -373 0
-944 -509 -374 0
-945 -510 -375 0
-943 -511 -376 0
-944 -512 -377 0
-945 -513 -378 0
-943 -514 -379 0
-944 -515 -380 0
-945 -516 -381 0
-943 -517 -382 0
-944 -518 -383 0
-945 -519 -384 0
-943 -520 -385 0
-944 -521 -386 0
-945 -522 -387 0
-943 -523 -388 0
-944 -524 -389 0
-945 -525 -390 0
-943 -526 -391 0
-944 -527 -392 0
-945 -528 -393 0
-943 -529 -394 0
-944 -530 -395 0
-945 -531 -396 0
-943 -532 -397 0
-944 -533 -398 0
-945 -534 -399 0
-943 -535 -400 0
-944 -536 -401 0
-945 -537 -402 0
-943 -538 -403 0
-944 -539 -404 0
-945 -540 -405 0
-943 -541 -406 0
-944 -542 -407 0
-945 -543 -408 0
-943 -544 -409 0
-944 -545 -410 0
-945 -546 -411 0
-943 -547 -412 0
-944 -548 -413 0
-945 -549 -414 0
-943 -550 -415 0
-944 -551 -416 0
-945 -552 -417 0
-943 -553 -418 0
-944 -554 -419 0
-945 -555 -420 0
-943 -556 -421 0
-944 -557 -422 0
-945 -558 -423 0
-943 -559 -424 0
-944 -560 -425 0
-945 -561 -426 0
-943 -562 -427 0
-944 -563 -428 0
-945 -564 -429 0
-943 -565 -430 0
-944 -566 -431 0
-945 -567 -432 0
-943 -568 -433 0
-944 -569 -434 0
-945 -570 -435 0
-943 -571 -436 0
-944 -572 -437 0
-945 -573 -438 0
-943 -574 -439 0
-944 -575 -440 0
-945 -576 -441 0
-943 -577 -442 0
-944 -578 -443 0
-945 -579 -444 0
-943 -580 -445 0
-944 -581 -446 0
-945 -582 -447 0
-943 -583 -448 0
-944 -584 -449 0
-945 -585 -450 0
-943 -586 -451 0
-944 -587 -452 0
-945 -588 -453 0
-943 -589 -454 0
-944 -590 -455 0
-945 -591 -456 0
-943 -592 -457 0
-944 -593 -458 0
-945 -594 -459 0
-943 -595 -460 0
-944 -596 -461 0
-945 -597 -462 0
-943 -598 -463 0
-944 -599 -464 0
-945 -600 -465 0
-943 -601 -466 0
-944 -602 -467 0
-945 -603 -468 0
-943 -604 -469 0
-944 -605 -470 0
-945 -606 -471 0
-943 -607 -472 0
-944 -608 -473 0
-945 -609 -474 0
-943 -610 -475 0
-944 -611 -476 0
-945 -612 -477 0
-943 -613 -478 0
-944 -614 -479 0
-945 -615 -480 0
-943 -616 -481 0
-944 -617 -482 0
-945 -618 -483 0
-943 -619 -484 0
-944 -620 -485 0
-945 -621 -486 0
-943 -622 -487 0
-944 -623 -488 0
-945 -624 -489 0
-943 -625 -490 0
-944 -626 -491 0
-945 -627 -492 0
-943 -628 -493 0
-944 -629 -494 0
-945 -630 -495 0
-943 -631 -496 0
-944 -632 -497 0
-945 -633 -498 0
-943 -634 -499 0
-944 -635 -500 0
-945 -636 -501 0
-943 -637 -502 0
-944 -638 -503 0
-945 -639 -504 0
-943 -640 -505 0
-944 -641 -506 0
-945 -642 -507 0
-943 -643 -508 0
-944 -644 -509 0
-945 -645 -510 0
-943 -646 -511 0
-944 -647 -512 0
-945 -648 -513 0
-943 -649 -514 0
-944 -650 -515 0
-945 -651 -516 0
-943 -652 -517 0
-944 -653 -518 0
-945 -654 -519 0
-943 -655 -520 0
-944 -656 -521 0
-945 -657 -522 0
-943 -658 -523 0
-944 -659 -524 0
-945 -660 -525 0
-943 -661 -526 0
-944 -662 -527 0
-945 -663 -528 0
-943 -664 -529 0
-944 -665 -530 0
-945 -666 -531 0
-943 -667 -532 0
-944 -668 -533 0
-945 -669 -534 0
-943 -670 -535 0
-944 -671 -536 0
-945 -672 -537 0
-943 -673 -538 0
-944 -674 -539 0
-945 -675 -540 0
-943 -676 -541 0
-944 -677 -542 0
-945 -678 -543 0
-943 -679 -544 0
-944 -680 -545 0
-945 -681 -546 0
-943 -682 -547 0
-944 -683 -548 0
-945 -684 -549 0
-943 -685 -550 0
-944 -686 -551 0
-945 -687 -552 0
-943 -688 -553 0
-944 -689 -554 0
-945 -690 -555 0
-943 -691 -556 0
-944 -692 -557 0
-945 -693 -558 0
-943 -694 -559 0
-944 -695 -560 0
-945 -696 -561 0
-943 -697 -562 0
-944 -698 -563 0
-945 -699 -564 0
-943 -700 -565 0
-944 -701 -566 0
-945 -702 -567 0
-943 -703 -568 0
-944 -704 -569 0
-945 -705 -570 0
-943 -706 -571 0
-944 -707 -572 0
-945 -708 -573 0
-943 -709 -574 0
-944 -710 -575 0
-945 -711 -576 0
-943 -712 -577 0
-944 -713 -578 0
-945 -714 -579 0
-943 -715 -580 0
-944 -716 -581 0
-945 -717 -582 0
-943 -718 -583 0
-944 -719 -584 0
-945 -720 -585 0
-943 -721 -586 0
-944 -722 -587 0
-945 -723 -588 0
-943 -724 -589 0
-944 -725 -590 0
-945 -726 -591 0
-943 -727 -592 0
-944 -728 -593 0
-945 -729 -594 0
-943 -730 -595 0
-944 -731 -596 0
-945 -732 -597 0
-943 -733 -598 0
-944 -734 -599 0
-945 -735 -600 0
-943 -736 -601 0
-944 -737 -602 0
-945 -738 -603 0
-943 -739 -604 0
-944 -740 -605 0
-945 -741 -606 0
-943 -742 -607 0
-944 -743 -608 0
-945 -744 -609 0
-943 -745 -610 0
-944 -746 -611 0
-945 -747 -612 0
-943 -748 -613 0
-944 -749 -614 0
-945 -750 -615 0
-943 -751 -616 0
-944 -752 -617 0
-945 -753 -618 0
-943 -754 -619 0
-944 -755 -620 0
-945 -756 -621 0
-943 -757 -622 0
-944 -758 -623 0
-945 -759 -624 0
-943 -760 -625 0
-944 -761 -626 0
-945 -762 -627 0
-943 -763 -628 0
-944 -764 -629 0
-945 -765 -630 0
-943 -766 -631 0
-944 -767 -632 0
-945 -768 -633 0
-943 -769 -634 0
-944 -770 -635 0
-945 -771 -636 0
-943 -772 -637 0
-944 -773 -638 0
-945 -774 -639 0
-943 -775 -640 0
-944 -776 -641 0
-945 -777 -642 0
-943 -778 -643 0
-944 -779 -644 0
-945 -780 -645 0
-943 -781 -646 0
-944 -782 -647 0
-945 -783 -648 0
-943 -784 -649 0
-944 -785 -650 0
-945 -786 -651 0
-943 -787 -652 0
-944 -788 -653 0
-945 -789 -654 0
-943 -790 -655 0
-944 -791 -656 0
-945 -792 -657 0
-943 -793 -658 0
-944 -794 -659 0
-945 -795 -660 0
-943 -796 -661 0
-944 -797 -662 0
-945 -798 -663 0
-943 -799 -664 0
-944 -800 -665 0
-945 -801 -666 0
-943 -802 -667 0
-944 -803 -668 0
-945 -804 -669 0
-943 -805 -670 0
-944 -806 -671 0
-945 -807 -672 0
-943 -808 -673 0
-944 -809 -674 0
-945 -810 -675 0
-943 -811 -676 0
-944 -812 -677 0
-945 -813 -678 0
-943 -814 -679 0
-944 -815 -680 0
-945 -816 -681 0
-943 -817 -682 0
-944 -818 -683 0
-945 -819 -684 0
-943 -820 -685 0
-944 -821 -686 0
-945 -822 -687 0
-943 -823 -688 0
-944 -824 -689 0
-945 -825 -690 0
-943 -826 -691 0
-944 -827 -692 0
-945 -828 -693 0
-943 -829 -694 0
-944 -830 -695 0
-945 -831 -696 0
-943 -832 -697 0
-944 -833 -698 0
-945 -834 -699 0
-943 -835 -700 0
-944 -836 -701 0
-945 -837 -702 0
-943 -838 -703 0
-944 -839 -704 0
-945 -840 -705 0
-943 -841 -706 0
-944 -842 -707 0
-945 -843 -708 0
-943 -844 -709 0
-944 -845 -710 0
-945 -846 -711 0
-943 -847 -712 0
-944 -848 -713 0
-945 -849 -714 0
-943 -850 -715 0
-944 -851 -716 0
-945 -852 -717 0
-943 -853 -718 0
-944 -854 -719 0
-945 -855 -720 0
-943 -856 -721 0
-944 -857 -722 0
-945 -858 -723 0
-943 -859 -724 0
-944 -860 -725 0
-945 -861 -726 0
-943 -862 -727 0
-944 -863 -728 0
-945 -864 -729 0
-943 -865 -730 0
-944 -866 -731 0
-945 -867 -732 0
-943 -868 -733 0
-944 -869 -734 0
-945 -870 -735 0
-943 -871 -736 0
-944 -872 -737 0
-945 -873 -738 0
-943 -874 -739 0
-944 -875 -740 0
-945 -876 -741 0
-943 -877 -742 0
-944 -878 -743 0
-945 -879 -744 0
-943 -880 -745 0
-944 -881 -746 0
-945 -882 -747 0
-943 -883 -748 0
-944 -884 -749 0
-945 -885 -750 0
-943 -886 -751 0
-944 -887 -752 0
-945 -888 -753 0
-943 -889 -754 0
-944 -890 -755 0
-945 -891 -756 0
-943 -892 -757 0
-944 -893 -758 0
-945 -894 -759 0
-943 -895 -760 0
-944 -896 -761 0
-945 -897 -762 0
-943 -898 -763 0
-944 -899 -764 0
-945 -900 -765 0
-943 -901 -766 0
-944 -902 -767 0
-945 -903 -768 0
-943 -904 -769 0
-944 -905 -770 0
-945 -906 -771 0
-943 -907 -772 0
-944 -908 -773 0
-945 -909 -774 0
-943 -910 -775 0
-944 -911 -776 0
-945 -912 -777 0
-943 -913 -778 0
-944 -914 -779 0
-945 -915 -780 0
-943 -916 -781 0
-944 -917 -782 0
-945 -918 -783 0
-943 -919 -784 0
-944 -920 -785 0
-945 -921 -786 0
-943 -922 -787 0
-944 -923 -788 0
-945 -924 -789 0
-943 -925 -790 0
-944 -926 -791 0
-945 -927 -792 0
-943 -928 -793 0
-944 -929 -794 0
-945 -930 -795 0
-943 -931 -796 0
-944 -932 -797 0
-945 -933 -798 0
-943 -934 -799 0
-944 -935 -800 0
-945 -936 -801 0
-943 -937 -802 0
-944 -938 -803 0
-945 -939 -804 0
-943 -940 -805 0
-944 -941 -806 0
-945 -942 -807 0
-943 -808 0
-944 -809 0
-945 -810 0
-946 -943 -811 0
-947 -944 -812 0
-948 -945 -813 0
-949 -943 -814 0
-950 -944 -815 0
-951 -945 -816 0
-952 -943 -817 0
-953 -944 -818 0
-954 -945 -819 0
-955 -943 -820 0
-956 -944 -821 0
-957 -945 -822 0
-958 -943 -823 0
-959 -944 -824 0
-960 -945 -825 0
-961 -943 -826 0
-962 -944 -827 0
-963 -945 -828 0
-964 -943 -829 0
-965 -944 -830 0
-966 -945 -831 0
-967 -943 -832 0
-968 -944 -833 0
-969 -945 -834 0
-970 -943 -835 0
-971 -944 -836 0
-972 -945 -837 0
-973 -943 -838 0
-974 -944 -839 0
-975 -945 -840 0
-976 -943 -841 0
-977 -944 -842 0
-978 -945 -843 0
-979 -943 -844 0
-980 -944 -845 0
-981 -945 -846 0
-982 -943 -847 0
-983 -944 -848 0
-984 -945 -849 0
-985 -943 -850 0
-986 -944 -851 0
-987 -945 -852 0
-988 -943 -853 0
-989 -944 -854 0
-990 -945 -855 0
-991 -943 -856 0
-992 -944 -857 0
-993 -945 -858 0
-994 -943 -859 0
-995 -944 -860 0
-996 -945 -861 0
-997 -943 -862 0
-998 -944 -863 0
-999 -945 -864 0
-1000 -943 -865 0
-1001 -944 -866 0
-1002 -945 -867 0
-1003 -943 -868 0
-1004 -944 -869 0
-1005 -945 -870 0
-1006 -943 -871 0
-1007 -944 -872 0
-1008 -945 -873 0
-1009 -943 -874 0
-1010 -944 -875 0
-1011 -945 -876 0
-1012 -943 -877 0
-1013 -944 -878 0
-1014 -945 -879 0
-1015 -943 -880 0
-1016 -944 -881 0
-1017 -945 -882 0
-1018 -943 -883 0
-1019 -944 -884 0
-1020 -945 -885 0
-1021 -943 -886 0
-1022 -944 -887 0
-1023 -945 -888 0
-1024 -943 -889 0
-1025 -944 -890 0
-1026 -945 -891 0
-1027 -943 -892 0
-1028 -944 -893 0
-1029 -945 -894 0
-964 -139 -1 0
-965 -140 -2 0
-966 -141 -3 0
-964 -142 -4 0
-965 -143 -5 0
-966 -144 -6 0
-964 -145 -7 0
-965 -146 -8 0
-966 -147 -9 0
-964 -148 -10 0
-965 -149 -11 0
-966 -150 -12 0
-964 -151 -13 0
-965 -152 -14 0
-966 -153 -15 0
-964 -154 -16 0
-965 -155 -17 0
-966 -156 -18 0
-964 -157 -19 0
-965 -158 -20 0
-966 -159 -21 0
-964 -160 -22 0
-965 -161 -23 0
-966 -162 -24 0
-964 -163 -25 0
-965 -164 -26 0
-966 -165 -27 0
-964 -166 -28 0
-965 -167 -29 0
-966 -168 -30 0
-964 -169 -31 0
-965 -170 -32 0
-966 -171 -33 0
-964 -172 -34 0
-965 -173 -35 0
-966 -174 -36 0
-964 -175 -37 0
-965 -176 -38 0
-966 -177 -39 0
-964 -178 -40 0
-965 -179 -41 0
-966 -180 -42 0
-964 -181 -43 0
-965 -182 -44 0
-966 -183 -45 0
-964 -184 -46 0
-965 -185 -47 0
-966 -186 -48 0
-964 -187 -49 0
-965 -188 -50 0
-966 -189 -51 0
-964 -190 -52 0
-965 -191 -53 0
-966 -192 -54 0
-964 -193 -55 0
-965 -194 -56 0
-966 -195 -57 0
-964 -196 -58 0
-965 -197 -59 0
-966 -198 -60 0
-964 -199 -61 0
-965 -200 -62 0
-966 -201 -63 0
-964 -202 -64 0
-965 -203 -65 0
-966 -204 -66 0
-964 -205 -67 0
-965 -206 -68 0
-966 -207 -69 0
-964 -208 -70 0
-965 -209 -71 0
-966 -210 -72 0
-964 -211 -73 0
-965 -212 -74 0
-966 -213 -75 0
-964 -214 -76 0
-965 -215 -77 0
-966 -216 -78 0
-964 -217 -79 0
-965 -218 -80 0
-966 -219 -81 0
-964 -220 -82 0
-965 -221 -83 0
-966 -222 -84 0
-964 -223 -85 0
-965 -224 -86 0
-966 -225 -87 0
-964 -226 -88 0
-965 -227 -89 0
-966 -228 -90 0
-964 -229 -91 0
-965 -230 -92 0
-966 -231 -93 0
-964 -232 -94 0
-965 -233 -95 0
-966 -234 -96 0
-964 -235 -97 0
-965 -236 -98 0
-966 -237 -99 0
-964 -238 -100 0
-965 -239 -101 0
-966 -240 -102 0
-964 -241 -103 0
-965 -242 -104 0
-966 -243 -105 0
-964 -244 -106 0
-965 -245 -107 0
-966 -246 -108 0
-964 -247 -109 0
-965 -248 -110 0
-966 -249 -111 0
-964 -250 -112 0
-965 -251 -113 0
-966 -252 -114 0
-964 -253 -115 0
-965 -254 -116 0
-966 -255 -117 0
-964 -256 -118 0
-965 -257 -119 0
-966 -258 -120 0
-964 -259 -121 0
-965 -260 -122 0
-966 -261 -123 0
-964 -262 -124 0
-965 -263 -125 0
-966 -264 -126 0
-964 -265 -127 0
-965 -266 -128 0
-966 -267 -129 0
-964 -268 -130 0
-965 -269 -131 0
-966 -270 -132 0
-964 -271 -133 0
-965 -272 -134 0
-966 -273 -135 0
-964 -274 -136 0
-965 -275 -137 0
-966 -276 -138 0
-964 -277 -139 0
-965 -278 -140 0
-966 -279 -141 0
-964 -280 -142 0
-965 -281 -143 0
-966 -282 -144 0
-964 -283 -145 0
-965 -284 -146 0
-966 -285 -147 0
-964 -286 -148 0
-965 -287 -149 0
-966 -288 -150 0
-964 -289 -151 0
-965 -290 -152 0
-966 -291 -153 0
-964 -292 -154 0
-965 -293 -155 0
-966 -294 -156 0
-964 -295 -157 0
-965 -296 -158 0
-966 -297 -159 0
-964 -298 -160 0
-965 -299 -161 0
-966 -300 -162 0
-964 -301 -163 0
-965 -302 -164 0
-966 -303 -165 0
-964 -304 -166 0
-965 -305 -167 0
-966 -306 -168 0
-964 -307 -169 0
-965 -308 -170 0
-966 -309 -171 0
-964 -310 -172 0
-965 -311 -173 0
-966 -312 -174 0
-964 -313 -175 0
-965 -314 -176 0
-966 -315 -177 0
-964 -316 -178 0
-965 -317 -179 0
-966 -318 -180 0
-964 -319 -181 0
-965 -320 -182 0
-966 -321 -183 0
-964 -322 -184 0
-965 -323 -185 0
-966 -324 -186 0
-964 -325 -187 0
-965 -326 -188 0
-966 -327 -189 0
-964 -328 -190 0
-965 -329 -191 0
-966 -330 -192 0
-964 -331 -193 0
-965 -332 -194 0
-966 -333 -195 0
-964 -334 -196 0
-965 -335 -197 0
-966 -336 -198 0
-964 -337 -199 0
-965 -338 -200 0
-966 -339 -201 0
-964 -340 -202 0
-965 -341 -203 0
-966 -342 -204 0
-964 -343 -205 0
-965 -344 -206 0
-966 -345 -207 0
-964 -346 -208 0
-965 -347 -209 0
-966 -348 -210 0
-964 -349 -211 0
-965 -350 -212 0
-966 -351 -213 0
-964 -352 -214 0
-965 -353 -215 0
-966 -354 -216 0
-964 -355 -217 0
-965 -356 -218 0
-966 -357 -219 0
-964 -358 -220 0
-965 -359 -221 0
-966 -360 -222 0
-964 -361 -223 0
-965 -362 -224 0
-966 -363 -225 0
-964 -364 -226 0
-965 -365 -227 0
-966 -366 -228 0
-964 -367 -229 0
-965 -368 -230 0
-966 -369 -231 0
-964 -370 -232 0
-965 -371 -233 0
-966 -372 -234 0
-964 -373 -235 0
-965 -374 -236 0
-966 -375 -237 0
-964 -376 -238 0
-965 -377 -239 0
-966 -378 -240 0
-964 -379 -241 0
-965 -380 -242 0
-966 -381 -243 0
-964 -382 -244 0
-965 -383 -245 0
-966 -384 -246 0
-964 -385 -247 0
-965 -386 -248 0
-966 -387 -249 0
-964 -388 -250 0
-965 -389 -251 0
-966 -390 -252 0
-964 -391 -253 0
-965 -392 -254 0
-966 -393 -255 0
-964 -394 -256 0
-965 -395 -257 0
-966 -396 -258 0
-964 -397 -259 0
-965 -398 -260 0
-966 -399 -261 0
-964 -400 -262 0
-965 -401 -263 0
-966 -402 -264 0
-964 -403 -265 0
-965 -404 -266 0
-966 -405 -267 0
-964 -406 -268 0
-965 -407 -269 0
-966 -408 -270 0
-964 -409 -271 0
-965 -410 -272 0
-966 -411 -273 0
-964 -412 -274 0
-965 -413 -275 0
-966 -414 -276 0
-964 -415 -277 0
-965 -416 -278 0
-966 -417 -279 0
-964 -418 -280 0
-965 -419 -281 0
-966 -420 -282 0
-964 -421 -283 0
-965 -422 -284 0
-966 -423 -285 0
-964 -424 -286 0
-965 -425 -287 0
-966 -426 -288 0
-964 -427 -289 0
-965 -428 -290 0
-966 -429 -291 0
-964 -430 -292 0
-965 -431 -293 0
-966 -432 -294 0
-964 -433 -295 0
-965 -434 -296 0
-966 -435 -297 0
-964 -436 -298 0
-965 -437 -299 0
-966 -438 -300 0
-964 -439 -301 0
-965 -440 -302 0
-966 -441 -303 0
-964 -442 -304 0
-965 -443 -305 0
-966 -444 -306 0
-964 -445 -307 0
-965 -446 -308 0
-966 -447 -309 0
-964 -448 -310 0
-965 -449 -311 0
-966 -450 -312 0
-964 -451 -313 0
-965 -452 -314 0
-966 -453 -315 0
-964 -454 -316 0
-965 -455 -317 0
-966 -456 -318 0
-964 -457 -319 0
-965 -458 -320 0
-966 -459 -321 0
-964 -460 -322 0
-965 -461 -323 0
-966 -462 -324 0
-964 -463 -325 0
-965 -464 -326 0
-966 -465 -327 0
-964 -466 -328 0
-965 -467 -329 0
-966 -468 -330 0
-964 -469 -331 0
-965 -470 -332 0
-966 -471 -333 0
-964 -472 -334 0
-965 -473 -335 0
-966 -474 -336 0
-964 -475 -337 0
-965 -476 -338 0
-966 -477 -339 0
-964 -478 -340 0
-965 -479 -341 0
-966 -480 -342 0
-964 -481 -343 0
-965 -482 -344 0
-966 -483 -345 0
-964 -484 -346 0
-965 -485 -347 0
-966 -486 -348 0
-964 -487 -349 0
-965 -488 -350 0
-966 -489 -351 0
-964 -490 -352 0
-965 -491 -353 0
-966 -492 -354 0
-964 -493 -355 0
-965 -494 -356 0
-966 -495 -357 0
-964 -496 -358 0
-965 -497 -359 0
-966 -498 -360 0
-964 -499 -361 0
-965 -500 -362 0
-966 -501 -363 0
-964 -502 -364 0
-965 -503 -365 0
-966 -504 -366 0
-964 -505 -367 0
-965 -506 -368 0
-966 -507 -369 0
-964 -508 -370 0
-965 -509 -371 0
-966 -510 -372 0
-964 -511 -373 0
-965 -512 -374 0
-966 -513 -375 0
-964 -514 -376 0
-965 -515 -377 0
-966 -516 -378 0
-964 -517 -379 0
-965 -518 -380 0
-966 -519 -381 0
-964 -520 -382 0
-965 -521 -383 0
-966 -522 -384 0
-964 -523 -385 0
-965 -524 -386 0
-966 -525 -387 0
-964 -526 -388 0
-965 -527 -389 0
-966 -528 -390 0
-964 -529 -391 0
-965 -530 -392 0
-966 -531 -393 0
-964 -532 -394 0
-965 -533 -395 0
-966 -534 -396 0
-964 -535 -397 0
-965 -536 -398 0
-966 -537 -399 0
-964 -538 -400 0
-965 -539 -401 0
-966 -540 -402 0
-964 -541 -403 0
-965 -542 -404 0
-966 -543 -405 0
-964 -544 -406 0
-965 -545 -407 0
-966 -546 -408 0
-964 -547 -409 0
-965 -548 -410 0
-966 -549 -411 0
-964 -550 -412 0
-965 -551 -413 0
-966 -552 -414 0
-964 -553 -415 0
-965 -554 -416 0
-966 -555 -417 0
-964 -556 -418 0
-965 -557 -419 0
-966 -558 -420 0
-964 -559 -421 0
-965 -560 -422 0
-966 -561 -423 0
-964 -562 -424 0
-965 -563 -425 0
-966 -564 -426 0
-964 -565 -427 0
-965 -566 -428 0
-966 -567 -429 0
-964 -568 -430 0
-965 -569 -431 0
-966 -570 -432 0
-964 -571 -433 0
-965 -572 -434 0
-966 -573 -435 0
-964 -574 -436 0
-965 -575 -437 0
-966 -576 -438 0
-964 -577 -439 0
-965 -578 -440 0
-966 -579 -441 0
-964 -580 -442 0
-965 -581 -443 0
-966 -582 -444 0
-964 -583 -445 0
-965 -584 -446 0
-966 -585 -447 0
-964 -586 -448 0
-965 -587 -449 0
-966 -588 -450 0
-964 -589 -451 0
-965 -590 -452 0
-966 -591 -453 0
-964 -592 -454 0
-965 -593 -455 0
-966 -594 -456 0
-964 -595 -457 0
-965 -596 -458 0
-966 -597 -459 0
-964 -598 -460 0
-965 -599 -461 0
-966 -600 -462 0
-964 -601 -463 0
-965 -602 -464 0
-966 -603 -465 0
-964 -604 -466 0
-965 -605 -467 0
-966 -606 -468 0
-964 -607 -469 0
-965 -608 -470 0
-966 -609 -471 0
-964 -610 -472 0
-965 -611 -473 0
-966 -612 -474 0
-964 -613 -475 0
-965 -614 -476 0
-966 -615 -477 0
-964 -616 -478 0
-965 -617 -479 0
-966 -618 -480 0
-964 -619 -481 0
-965 -620 -482 0
-966 -621 -483 0
-964 -622 -484 0
-965 -623 -485 0
-966 -624 -486 0
-964 -625 -487 0
-965 -626 -488 0
-966 -627 -489 0
-964 -628 -490 0
-965 -629 -491 0
-966 -630 -492 0
-964 -631 -493 0
-965 -632 -494 0
-966 -633 -495 0
-964 -634 -496 0
-965 -635 -497 0
-966 -636 -498 0
-964 -637 -499 0
-965 -638 -500 0
-966 -639 -501 0
-964 -640 -502 0
-965 -641 -503 0
-966 -642 -504 0
-964 -643 -505 0
-965 -644 -506 0
-966 -645 -507 0
-964 -646 -508 0
-965 -647 -509 0
-966 -648 -510 0
-964 -649 -511 0
-965 -650 -512 0
-966 -651 -513 0
-964 -652 -514 0
-965 -653 -515 0
-966 -654 -516 0
-964 -655 -517 0
-965 -656 -518 0
-966 -657 -519 0
-964 -658 -520 0
-965 -659 -521 0
-966 -660 -522 0
-964 -661 -523 0
-965 -662 -524 0
-966 -663 -525 0
-964 -664 -526 0
-965 -665 -527 0
-966 -666 -528 0
-964 -667 -529 0
-965 -668 -530 0
-966 -669 -531 0
-964 -670 -532 0
-965 -671 -533 0
-966 -672 -534 0
-964 -673 -535 0
-965 -674 -536 0
-966 -675 -537 0
-964 -676 -538 0
-965 -677 -539 0
-966 -678 -540 0
-964 -679 -541 0
-965 -680 -542 0
-966 -681 -543 0
-964 -682 -544 0
-965 -683 -545 0
-966 -684 -546 0
-964 -685 -547 0
-965 -686 -548 0
-966 -687 -549 0
-964 -688 -550 0
-965 -689 -551 0
-966 -690 -552 0
-964 -691 -553 0
-965 -692 -554 0
-966 -693 -555 0
-964 -694 -556 0
-965 -695 -557 0
-966 -696 -558 0
-964 -697 -559 0
-965 -698 -560 0
-966 -699 -561 0
-964 -700 -562 0
-965 -701 -563 0
-966 -702 -564 0
-964 -703 -565 0
-965 -704 -566 0
-966 -705 -567 0
-964 -706 -568 0
-965 -707 -569 0
-966 -708 -570 0
-964 -709 -571 0
-965 -710 -572 0
-966 -711 -573 0
-964 -712 -574 0
-965 -713 -575 0
-966 -714 -576 0
-964 -715 -577 0
-965 -716 -578 0
-966 -717 -579 0
-964 -718 -580 0
-965 -719 -581 0
-966 -720 -582 0
-964 -721 -583 0
-965 -722 -584 0
-966 -723 -585 0
-964 -724 -586 0
-965 -725 -587 0
-966 -726 -588 0
-964 -727 -589 0
-965 -728 -590 0
-966 -729 -591 0
-964 -730 -592 0
-965 -731 -593 0
-966 -732 -594 0
-964 -733 -595 0
-965 -734 -596 0
-966 -735 -597 0
-964 -736 -598 0
-965 -737 -599 0
-966 -738 -600 0
-964 -739 -601 0
-965 -740 -602 0
-966 -741 -603 0
-964 -742 -604 0
-965 -743 -605 0
-966 -744 -606 0
-964 -745 -607 0
-965 -746 -608 0
-966 -747 -609 0
-964 -748 -610 0
-965 -749 -611 0
-966 -750 -612 0
-964 -751 -613 0
-965 -752 -614 0
-966 -753 -615 0
-964 -754 -616 0
-965 -755 -617 0
-966 -756 -618 0
-964 -757 -619 0
-965 -758 -620 0
-966 -759 -621 0
-964 -760 -622 0
-965 -761 -623 0
-966 -762 -624 0
-964 -763 -625 0
-965 -764 -626 0
-966 -765 -627 0
-964 -766 -628 0
-965 -767 -629 0
-966 -768 -630 0
-964 -769 -631 0
-965 -770 -632 0
-966 -771 -633 0
-964 -772 -634 0
-965 -773 -635 0
-966 -774 -636 0
-964 -775 -637 0
-965 -776 -638 0
-966 -777 -639 0
-964 -778 -640 0
-965 -779 -641 0
-966 -780 -642 0
-964 -781 -643 0
-965 -782 -644 0
-966 -783 -645 0
-964 -784 -646 0
-965 -785 -647 0
-966 -786 -648 0
-964 -787 -649 0
-965 -788 -650 0
-966 -789 -651 0
-964 -790 -652 0
-965 -791 -653 0
-966 -792 -654 0
-964 -793 -655 0
-965 -794 -656 0
-966 -795 -657 0
-964 -796 -658 0
-965 -797 -659 0
-966 -798 -660 0
-964 -799 -661 0
-965 -800 -662 0
-966 -801 -663 0
-964 -802 -664 0
-965 -803 -665 0
-966 -804 -666 0
-964 -805 -667 0
-965 -806 -668 0
-966 -807 -669 0
-964 -808 -670 0
-965 -809 -671 0
-966 -810 -672 0
-964 -811 -673 0
-965 -812 -674 0
-966 -813 -675 0
-964 -814 -676 0
-965 -815 -677 0
-966 -816 -678 0
-964 -817 -679 0
-965 -818 -680 0
-966 -819 -681 0
-964 -820 -682 0
-965 -821 -683 0
-966 -822 -684 0
-964 -823 -685 0
-965 -824 -686 0
-966 -825 -687 0
-964 -826 -688 0
-965 -827 -689 0
-966 -828 -690 0
-964 -829 -691 0
-965 -830 -692 0
-966 -831 -693 0
-964 -832 -694 0
-965 -833 -695 0
-966 -834 -696 0
-964 -835 -697 0
-965 -836 -698 0
-966 -837 -699 0
-964 -838 -700 0
-965 -839 -701 0
-966 -840 -702 0
-964 -841 -703 0
-965 -842 -704 0
-966 -843 -705 0
-964 -844 -706 0
-965 -845 -707 0
-966 -846 -708 0
-964 -847 -709 0
-965 -848 -710 0
-966 -849 -711 0
-964 -850 -712 0
-965 -851 -713 0
-966 -852 -714 0
-964 -853 -715 0
-965 -854 -716 0
-966 -855 -717 0
-964 -856 -718 0
-965 -857 -719 0
-966 -858 -720 0
-964 -859 -721 0
-965 -860 -722 0
-966 -861 -723 0
-964 -862 -724 0
-965 -863 -725 0
-966 -864 -726 0
-964 -865 -727 0
-965 -866 -728 0
-966 -867 -729 0
-964 -868 -730 0
-965 -869 -731 0
-966 -870 -732 0
-964 -871 -733 0
-965 -872 -734 0
-966 -873 -735 0
-964 -874 -736 0
-965 -875 -737 0
-966 -876 -738 0
-964 -877 -739 0
-965 -878 -740 0
-966 -879 -741 0
-964 -880 -742 0
-965 -881 -743 0
-966 -882 -744 0
-964 -883 -745 0
-965 -884 -746 0
-966 -885 -747 0
-964 -886 -748 0
-965 -887 -749 0
-966 -888 -750 0
-964 -889 -751 0
-965 -890 -752 0
-966 -891 -753 0
-964 -892 -754 0
-965 -893 -755 0
-966 -894 -756 0
-964 -895 -757 0
-965 -896 -758 0
-966 -897 -759 0
-964 -898 -760 0
-965 -899 -761 0
-966 -900 -762 0
-964 -901 -763 0
-965 -902 -764 0
-966 -903 -765 0
-964 -904 -766 0
-965 -905 -767 0
-966 -906 -768 0
-964 -907 -769 0
-965 -908 -770 0
-966 -909 -771 0
-964 -910 -772 0
-965 -911 -773 0
-966 -912 -774 0
-964 -913 -775 0
-965 -914 -776 0
-966 -915 -777 0
-964 -916 -778 0
-965 -917 -779 0
-966 -918 -780 0
-964 -919 -781 0
-965 -920 -782 0
-966 -921 -783 0
-964 -922 -784 0
-965 -923 -785 0
-966 -924 -786 0
-964 -925 -787 0
-965 -926 -788 0
-966 -927 -789 0
-964 -928 -790 0
-965 -929 -791 0
-966 -930 -792 0
-964 -931 -793 0
-965 -932 -794 0
-966 -933 -795 0
-964 -934 -796 0
-965 -935 -797 0
-966 -936 -798 0
-964 -937 -799 0
-965 -938 -800 0
-966 -939 -801 0
-964 -940 -802 0
-965 -941 -803 0
-966 -942 -804 0
-964 -943 -805 0
-965 -944 -806 0
-966 -945 -807 0
-964 -946 -808 0
-965 -947 -809 0
-966 -948 -810 0
-964 -949 -811 0
-965 -950 -812 0
-966 -951 -813 0
-964 -952 -814 0
-965 -953 -815 0
-966 -954 -816 0
-964 -955 -817 0
-965 -956 -818 0
-966 -957 -819 0
-964 -958 -820 0
-965 -959 -821 0
-966 -960 -822 0
-964 -961 -823 0
-965 -962 -824 0
-966 -963 -825 0
-964 -826 0
-965 -827 0
-966 -828 0
-967 -964 -829 0
-968 -965 -830 0
-969 -966 -831 0
-970 -964 -832 0
-971 -965 -833 0
-972 -966 -834 0
-973 -964 -835 0
-974 -965 -836 0
-975 -966 -837 0
-976 -964 -838 0
-977 -965 -839 0
-978 -966 -840 0
-979 -964 -841 0
-980 -965 -842 0
-981 -966 -843 0
-982 -964 -844 0
-983 -965 -845 0
-984 -966 -846 0
-985 -964 -847 0
-986 -965 -848 0
-987 -966 -849 0
-988 -964 -850 0
-989 -965 -851 0
-990 -966 -852 0
-991 -964 -853 0
-992 -965 -854 0
-993 -966 -855 0
-994 -964 -856 0
-995 -965 -857 0
-996 -966 -858 0
-997 -964 -859 0
-998 -965 -860 0
-999 -966 -861 0
-1000 -964 -862 0
-1001 -965 -863 0
-1002 -966 -864 0
-1003 -964 -865 0
-1004 -965 -866 0
-1005 -966 -867 0
-1006 -964 -868 0
-1007 -965 -869 0
-1008 -966 -870 0
-1009 -964 -871 0
-1010 -965 -872 0
-1011 -966 -873 0
-1012 -964 -874 0
-1013 -965 -875 0
-1014 -966 -876 0
-1015 -964 -877 0
-1016 -965 -878 0
-1017 -966 -879 0
-1018 -964 -880 0
-1019 -965 -881 0
-1020 -966 -882 0
-1021 -964 -883 0
-1022 -965 -884 0
-1023 -966 -885 0
-1024 -964 -886 0
-1025 -965 -887 0
-1026 -966 -888 0
-1027 -964 -889 0
-1028 -965 -890 0
-1029 -966 -891 0
-985 -142 -1 0
-986 -143 -2 0
-987 -144 -3 0
-985 -145 -4 0
-986 -146 -5 0
-987 -147 -6 0
-985 -148 -7 0
-986 -149 -8 0
-987 -150 -9 0
-985 -151 -10 0
-986 -152 -11 0
-987 -153 -12 0
-985 -154 -13 0
-986 -155 -14 0
-987 -156 -15 0
-985 -157 -16 0
-986 -158 -17 0
-987 -159 -18 0
-985 -160 -19 0
-986 -161 -20 0
-987 -162 -21 0
-985 -163 -22 0
-986 -164 -23 0
-987 -165 -24 0
-985 -166 -25 0
-986 -167 -26 0
-987 -168 -27 0
-985 -169 -28 0
-986 -170 -29 0
-987 -171 -30 0
-985 -172 -31 0
-986 -173 -32 0
-987 -174 -33 0
-985 -175 -34 0
-986 -176 -35 0
-987 -177 -36 0
-985 -178 -37 0
-986 -179 -38 0
-987 -180 -39 0
-985 -181 -40 0
-986 -182 -41 0
-987 -183 -42 0
-985 -184 -43 0
-986 -185 -44 0
-987 -186 -45 0
-985 -187 -46 0
-986 -188 -47 0
-987 -189 -48 0
-985 -190 -49 0
-986 -191 -50 0
-987 -192 -51 0
-985 -193 -52 0
-986 -194 -53 0
-987 -195 -54 0
-985 -196 -55 0
-986 -197 -56 0
-987 -198 -57 0
-985 -199 -58 0
-986 -200 -59 0
-987 -201 -60 0
-985 -202 -61 0
-986 -203 -62 0
-987 -204 -63 0
-985 -205 -64 0
-986 -206 -65 0
-987 -207 -66 0
-985 -208 -67 0
-986 -209 -68 0
-987 -210 -69 0
-985 -211 -70 0
-986 -212 -71 0
-987 -213 -72 0
-985 -214 -73 0
-986 -215 -74 0
-987 -216 -75 0
-985 -217 -76 0
-986 -218 -77 0
-987 -219 -78 0
-985 -220 -79 0
-986 -221 -80 0
-987 -222 -81 0
-985 -223 -82 0
-986 -224 -83 0
-987 -225 -84 0
-985 -226 -85 0
-986 -227 -86 0
-987 -228 -87 0
-985 -229 -88 0
-986 -230 -89 0
-987 -231 -90 0
-985 -232 -91 0
-986 -233 -92 0
-987 -234 -93 0
-985 -235 -94 0
-986 -236 -95 0
-987 -237 -96 0
-985 -238 -97 0
-986 -239 -98 0
-987 -240 -99 0
-985 -241 -100 0
-986 -242 -101 0
-987 -243 -102 0
-985 -244 -103 0
-986 -245 -104 0
-987 -246 -105 0
-985 -247 -106 0
-986 -248 -107 0
-987 -249 -108 0
-985 -250 -109 0
-986 -251 -110 0
-987 -252 -111 0
-985 -253 -112 0
-986 -254 -113 0
-987 -255 -114 0
-985 -256 -115 0
-986 -257 -116 0
-987 -258 -117 0
-985 -259 -118 0
-986 -260 -119 0
-987 -261 -120 0
-985 -262 -121 0
-986 -263 -122 0
-987 -264 -123 0
-985 -265 -124 0
-986 -266 -125 0
-987 -267 -126 0
-985 -268 -127 0
-986 -269 -128 0
-987 -270 -129 0
-985 -271 -130 0
-986 -272 -131 0
-987 -273 -132 0
-985 -274 -133 0
-986 -275 -134 0
-987 -276 -135 0
-985 -277 -136 0
-986 -278 -137 0
-987 -279 -138 0
-985 -280 -139 0
-986 -281 -140 0
-987 -282 -141 0
-985 -283 -142 0
-986 -284 -143 0
-987 -285 -144 0
-985 -286 -145 0
-986 -287 -146 0
-987 -288 -147 0
-985 -289 -148 0
-986 -290 -149 0
-987 -291 -150 0
-985 -292 -151 0
-986 -293 -152 0
-987 -294 -153 0
-985 -295 -154 0
-986 -296 -155 0
-987 -297 -156 0
-985 -298 -157 0
-986 -299 -158 0
-987 -300 -159 0
-985 -301 -160 0
-986 -302 -161 0
-987 -303 -162 0
-985 -304 -163 0
-986 -305 -164 0
-987 -306 -165 0
-985 -307 -166 0
-986 -308 -167 0
-987 -309 -168 0
-985 -310 -169 0
-986 -311 -170 0
-987 -312 -171 0
-985 -313 -172 0
-986 -314 -173 0
-987 -315 -174 0
-985 -316 -175 0
-986 -317 -176 0
-987 -318 -177 0
-985 -319 -178 0
-986 -320 -179 0
-987 -321 -180 0
-985 -322 -181 0
-986 -323 -182 0
-987 -324 -183 0
-985 -325 -184 0
-986 -326 -185 0
-987 -327 -186 0
-985 -328 -187 0
-986 -329 -188 0
-987 -330 -189 0
-985 -331 -190 0
-986 -332 -191 0
-987 -333 -192 0
-985 -334 -193 0
-986 -335 -194 0
-987 -336 -195 0
-985 -337 -196 0
-986 -338 -197 0
-987 -339 -198 0
-985 -340 -199 0
-986 -341 -200 0
-987 -342 -201 0
-985 -343 -202 0
-986 -344 -203 0
-987 -345 -204 0
-985 -346 -205 0
-986 -347 -206 0
-987 -348 -207 0
-985 -349 -208 0
-986 -350 -209 0
-987 -351 -210 0
-985 -352 -211 0
-986 -353 -212 0
-987 -354 -213 0
-985 -355 -214 0
-986 -356 -215 0
-987 -357 -216 0
-985 -358 -217 0
-986 -359 -218 0
-987 -360 -219 0
-985 -361 -220 0
-986 -362 -221 0
-987 -363 -222 0
-985 -364 -223 0
-986 -365 -224 0
-987 -366 -225 0
-985 -367 -226 0
-986 -368 -227 0
-987 -369 -228 0
-985 -370 -229 0
-986 -371 -230 0
-987 -372 -231 0
-985 -373 -232 0
-986 -374 -233 0
-987 -375 -234 0
-985 -376 -235 0
-986 -377 -236 0
-987 -378 -237 0
-985 -379 -238 0
-986 -380 -239 0
-987 -381 -240 0
-985 -382 -241 0
-986 -383 -242 0
-987 -384 -243 0
-985 -385 -244 0
-986 -386 -245 0
-987 -387 -246 0
-985 -388 -247 0
-986 -389 -248 0
-987 -390 -249 0
-985 -391 -250 0
-986 -392 -251 0
-987 -393 -252 0
-985 -394 -253 0
-986 -395 -254 0
-987 -396 -255 0
-985 -397 -256 0
-986 -398 -257 0
-987 -399 -258 0
-985 -400 -259 0
-986 -401 -260 0
-987 -402 -261 0
-985 -403 -262 0
-986 -404 -263 0
-987 -405 -264 0
-985 -406 -265 0
-986 -407 -266 0
-987 -408 -267 0
-985 -409 -268 0
-986 -410 -269 0
-987 -411 -270 0
-985 -412 -271 0
-986 -413 -272 0
-987 -414 -273 0
-985 -415 -274 0
-986 -416 -275 0
-987 -417 -276 0
-985 -418 -277 0
-986 -419 -278 0
-987 -420 -279 0
-985 -421 -280 0
-986 -422 -281 0
-987 -423 -282 0
-985 -424 -283 0
-986 -425 -284 0
-987 -426 -285 0
-985 -427 -286 0
-986 -428 -287 0
-987 -429 -288 0
-985 -430 -289 0
-986 -431 -290 0
-987 -432 -291 0
-985 -433 -292 0
-986 -434 -293 0
-987 -435 -294 0
-985 -436 -295 0
-986 -437 -296 0
-987 -438 -297 0
-985 -439 -298 0
-986 -440 -299 0
-987 -441 -300 0
-985 -442 -301 0
-986 -443 -302 0
-987 -444 -303 0
-985 -445 -304 0
-986 -446 -305 0
-987 -447 -306 0
-985 -448 -307 0
-986 -449 -308 0
-987 -450 -309 0
-985 -451 -310 0
-986 -452 -311 0
-987 -453 -312 0
-985 -454 -313 0
-986 -455 -314 0
-987 -456 -315 0
-985 -457 -316 0
-986 -458 -317 0
-987 -459 -318 0
-985 -460 -319 0
-986 -461 -320 0
-987 -462 -321 0
-985 -463 -322 0
-986 -464 -323 0
-987 -465 -324 0
-985 -466 -325 0
-986 -467 -326 0
-987 -468 -327 0
-985 -469 -328 0
-986 -470 -329 0
-987 -471 -330 0
-985 -472 -331 0
-986 -473 -332 0
-987 -474 -333 0
-985 -475 -334 0
-986 -476 -335 0
-987 -477 -336 0
-985 -478 -337 0
-986 -479 -338 0
-987 -480 -339 0
-985 -481 -340 0
-986 -482 -341 0
-987 -483 -342 0
-985 -484 -343 0
-986 -485 -344 0
-987 -486 -345 0
-985 -487 -346 0
-986 -488 -347 0
-987 -489 -348 0
-985 -490 -349 0
-986 -491 -350 0
-987 -492 -351 0
-985 -493 -352 0
-986 -494 -353 0
-987 -495 -354 0
-985 -496 -355 0
-986 -497 -356 0
-987 -498 -357 0
-985 -499 -358 0
-986 -500 -359 0
-987 -501 -360 0
-985 -502 -361 0
-986 -503 -362 0
-987 -504 -363 0
-985 -505 -364 0
-986 -506 -365 0
-987 -507 -366 0
-985 -508 -367 0
-986 -509 -368 0
-987 -510 -369 0
-985 -511 -370 0
-986 -512 -371 0
-987 -513 -372 0
-985 -514 -373 0
-986 -515 -374 0
-987 -516 -375 0
-985 -517 -376 0
-986 -518 -377 0
-987 -519 -378 0
-985 -520 -379 0
-986 -521 -380 0
-987 -522 -381 0
-985 -523 -382 0
-986 -524 -383 0
-987 -525 -384 0
-985 -526 -385 0
-986 -527 -386 0
-987 -528 -387 0
-985 -529 -388 0
-986 -530 -389 0
-987 -531 -390 0
-985 -532 -391 0
-986 -533 -392 0
-987 -534 -393 0
-985 -535 -394 0
-986 -536 -395 0
-987 -537 -396 0
-985 -538 -397 0
-986 -539 -398 0
-987 -540 -399 0
-985 -541 -400 0
-986 -542 -401 0
-987 -543 -402 0
-985 -544 -403 0
-986 -545 -404 0
-987 -546 -405 0
-985 -547 -406 0
-986 -548 -407 0
-987 -549 -408 0
-985 -550 -409 0
-986 -551 -410 0
-987 -552 -411 0
-985 -553 -412 0
-986 -554 -413 0
-987 -555 -414 0
-985 -556 -415 0
-986 -557 -416 0
-987 -558 -417 0
-985 -559 -418 0
-986 -560 -419 0
-987 -561 -420 0
-985 -562 -421 0
-986 -563 -422 0
-987 -564 -423 0
-985 -565 -424 0
-986 -566 -425 0
-987 -567 -426 0
-985 -568 -427 0
-986 -569 -428 0
-987 -570 -429 0
-985 -571 -430 0
-986 -572 -431 0
-987 -573 -432 0
-985 -574 -433 0
-986 -575 -434 0
-987 -576 -435 0
-985 -577 -436 0
-986 -578 -437 0
-987 -579 -438 0
-985 -580 -439 0
-986 -581 -440 0
-987 -582 -441 0
-985 -583 -442 0
-986 -584 -443 0
-987 -585 -444 0
-985 -586 -445 0
-986 -587 -446 0
-987 -588 -447 0
-985 -589 -448 0
-986 -590 -449 0
-987 -591 -450 0
-985 -592 -451 0
-986 -593 -452 0
-987 -594 -453 0
-985 -595 -454 0
-986 -596 -455 0
-987 -597 -456 0
-985 -598 -457 0
-986 -599 -458 0
-987 -600 -459 0
-985 -601 -460 0
-986 -602 -461 0
-987 -603 -462 0
-985 -604 -463 0
-986 -605 -464 0
-987 -606 -465 0
-985 -607 -466 0
-986 -608 -467 0
-987 -609 -468 0
-985 -610 -469 0
-986 -611 -470 0
-987 -612 -471 0
-985 -613 -472 0
-986 -614 -473 0
-987 -615 -474 0
-985 -616 -475 0
-986 -617 -476 0
-987 -618 -477 0
-985 -619 -478 0
-986 -620 -479 0
-987 -621 -480 0
-985 -622 -481 0
-986 -623 -482 0
-987 -624 -483 0
-985 -625 -484 0
-986 -626 -485 0
-987 -627 -486 0
-985 -628 -487 0
-986 -629 -488 0
-987 -630 -489 0
-985 -631 -490 0
-986 -632 -491 0
-987 -633 -492 0
-985 -634 -493 0
-986 -635 -494 0
-987 -636 -495 0
-985 -637 -496 0
-986 -638 -497 0
-987 -639 -498 0
-985 -640 -499 0
-986 -641 -500 0
-987 -642 -501 0
-985 -643 -502 0
-986 -644 -503 0
-987 -645 -504 0
-985 -646 -505 0
-986 -647 -506 0
-987 -648 -507 0
-985 -649 -508 0
-986 -650 -509 0
-987 -651 -510 0
-985 -652 -511 0
-986 -653 -512 0
-987 -654 -513 0
-985 -655 -514 0
-986 -656 -515 0
-987 -657 -516 0
-985 -658 -517 0
-986 -659 -518 0
-987 -660 -519 0
-985 -661 -520 0
-986 -662 -521 0
-987 -663 -522 0
-985 -664 -523 0
-986 -665 -524 0
-987 -666 -525 0
-985 -667 -526 0
-986 -668 -527 0
-987 -669 -528 0
-985 -670 -529 0
-986 -671 -530 0
-987 -672 -531 0
-985 -673 -532 0
-986 -674 -533 0
-987 -675 -534 0
-985 -676 -535 0
-986 -677 -536 0
-987 -678 -537 0
-985 -679 -538 0
-986 -680 -539 0
-987 -681 -540 0
-985 -682 -541 0
-986 -683 -542 0
-987 -684 -543 0
-985 -685 -544 0
-986 -686 -545 0
-987 -687 -546 0
-985 -688 -547 0
-986 -689 -548 0
-987 -690 -549 0
-985 -691 -550 0
-986 -692 -551 0
-987 -693 -552 0
-985 -694 -553 0
-986 -695 -554 0
-987 -696 -555 0
-985 -697 -556 0
-986 -698 -557 0
-987 -699 -558 0
-985 -700 -559 0
-986 -701 -560 0
-987 -702 -561 0
-985 -703 -562 0
-986 -704 -563 0
-987 -705 -564 0
-985 -706 -565 0
-986 -707 -566 0
-987 -708 -567 0
-985 -709 -568 0
-986 -710 -569 0
-987 -711 -570 0
-985 -712 -571 0
-986 -713 -572 0
-987 -714 -573 0
-985 -715 -574 0
-986 -716 -575 0
-987 -717 -576 0
-985 -718 -577 0
-986 -719 -578 0
-987 -720 -579 0
-985 -721 -580 0
-986 -722 -581 0
-987 -723 -582 0
-985 -724 -583 0
-986 -725 -584 0
-987 -726 -585 0
-985 -727 -586 0
-986 -728 -587 0
-987 -729 -588 0
-985 -730 -589 0
-986 -731 -590 0
-987 -732 -591 0
-985 -733 -592 0
-986 -734 -593 0
-987 -735 -594 0
-985 -736 -595 0
-986 -737 -596 0
-987 -738 -597 0
-985 -739 -598 0
-986 -740 -599 0
-987 -741 -600 0
-985 -742 -601 0
-986 -743 -602 0
-987 -744 -603 0
-985 -745 -604 0
-986 -746 -605 0
-987 -747 -606 0
-985 -748 -607 0
-986 -749 -608 0
-987 -750 -609 0
-985 -751 -610 0
-986 -752 -611 0
-987 -753 -612 0
-985 -754 -613 0
-986 -755 -614 0
-987 -756 -615 0
-985 -757 -616 0
-986 -758 -617 0
-987 -759 -618 0
-985 -760 -619 0
-986 -761 -620 0
-987 -762 -621 0
-985 -763 -622 0
-986 -764 -623 0
-987 -765 -624 0
-985 -766 -625 0
-986 -767 -626 0
-987 -768 -627 0
-985 -769 -628 0
-986 -770 -629 0
-987 -771 -630 0
-985 -772 -631 0
-986 -773 -632 0
-987 -774 -633 0
-985 -775 -634 0
-986 -776 -635 0
-987 -777 -636 0
-985 -778 -637 0
-986 -779 -638 0
-987 -780 -639 0
-985 -781 -640 0
-986 -782 -641 0
-987 -783 -642 0
-985 -784 -643 0
-986 -785 -644 0
-987 -786 -645 0
-985 -787 -646 0
-986 -788 -647 0
-987 -789 -648 0
-985 -790 -649 0
-986 -791 -650 0
-987 -792 -651 0
-985 -793 -652 0
-986 -794 -653 0
-987 -795 -654 0
-985 -796 -655 0
-986 -797 -656 0
-987 -798 -657 0
-985 -799 -658 0
-986 -800 -659 0
-987 -801 -660 0
-985 -802 -661 0
-986 -803 -662 0
-987 -804 -663 0
-985 -805 -664 0
-986 -806 -665 0
-987 -807 -666 0
-985 -808 -667 0
-986 -809 -668 0
-987 -810 -669 0
-985 -811 -670 0
-986 -812 -671 0
-987 -813 -672 0
-985 -814 -673 0
-986 -815 -674 0
-987 -816 -675 0
-985 -817 -676 0
-986 -818 -677 0
-987 -819 -678 0
-985 -820 -679 0
-986 -821 -680 0
-987 -822 -681 0
-985 -823 -682 0
-986 -824 -683 0
-987 -825 -684 0
-985 -826 -685 0
-986 -827 -686 0
-987 -828 -687 0
-985 -829 -688 0
-986 -830 -689 0
-987 -831 -690 0
-985 -832 -691 0
-986 -833 -692 0
-987 -834 -693 0
-985 -835 -694 0
-986 -836 -695 0
-987 -837 -696 0
-985 -838 -697 0
-986 -839 -698 0
-987 -840 -699 0
-985 -841 -700 0
-986 -842 -701 0
-987 -843 -702 0
-985 -844 -703 0
-986 -845 -704 0
-987 -846 -705 0
-985 -847 -706 0
-986 -848 -707 0
-987 -849 -708 0
-985 -850 -709 0
-986 -851 -710 0
-987 -852 -711 0
-985 -853 -712 0
-986 -854 -713 0
-987 -855 -714 0
-985 -856 -715 0
-986 -857 -716 0
-987 -858 -717 0
-985 -859 -718 0
-986 -860 -719 0
-987 -861 -720 0
-985 -862 -721 0
-986 -863 -722 0
-987 -864 -723 0
-985 -865 -724 0
-986 -866 -725 0
-987 -867 -726 0
-985 -868 -727 0
-986 -869 -728 0
-987 -870 -729 0
-985 -871 -730 0
-986 -872 -731 0
-987 -873 -732 0
-985 -874 -733 0
-986 -875 -734 0
-987 -876 -735 0
-985 -877 -736 0
-986 -878 -737 0
-987 -879 -738 0
-985 -880 -739 0
-986 -881 -740 0
-987 -882 -741 0
-985 -883 -742 0
-986 -884 -743 0
-987 -885 -744 0
-985 -886 -745 0
-986 -887 -746 0
-987 -888 -747 0
-985 -889 -748 0
-986 -890 -749 0
-987 -891 -750 0
-985 -892 -751 0
-986 -893 -752 0
-987 -894 -753 0
-985 -895 -754 0
-986 -896 -755 0
-987 -897 -756 0
-985 -898 -757 0
-986 -899 -758 0
-987 -900 -759 0
-985 -901 -760 0
-986 -902 -761 0
-987 -903 -762 0
-985 -904 -763 0
-986 -905 -764 0
-987 -906 -765 0
-985 -907 -766 0
-986 -908 -767 0
-987 -909 -768 0
-985 -910 -769 0
-986 -911 -770 0
-987 -912 -771 0
-985 -913 -772 0
-986 -914 -773 0
-987 -915 -774 0
-985 -916 -775 0
-986 -917 -776 0
-987 -918 -777 0
-985 -919 -778 0
-986 -920 -779 0
-987 -921 -780 0
-985 -922 -781 0
-986 -923 -782 0
-987 -924 -783 0
-985 -925 -784 0
-986 -926 -785 0
-987 -927 -786 0
-985 -928 -787 0
-986 -929 -788 0
-987 -930 -789 0
-985 -931 -790 0
-986 -932 -791 0
-987 -933 -792 0
-985 -934 -793 0
-986 -935 -794 0
-987 -936 -795 0
-985 -937 -796 0
-986 -938 -797 0
-987 -939 -798 0
-985 -940 -799 0
-986 -941 -800 0
-987 -942 -801 0
-985 -943 -802 0
-986 -944 -803 0
-987 -945 -804 0
-985 -946 -805 0
-986 -947 -806 0
-987 -948 -807 0
-985 -949 -808 0
-986 -950 -809 0
-987 -951 -810 0
-985 -952 -811 0
-986 -953 -812 0
-987 -954 -813 0
-985 -955 -814 0
-986 -956 -815 0
-987 -957 -816 0
-985 -958 -817 0
-986 -959 -818 0
-987 -960 -819 0
-985 -961 -820 0
-986 -962 -821 0
-987 -963 -822 0
-985 -964 -823 0
-986 -965 -824 0
-987 -966 -825 0
-985 -967 -826 0
-986 -968 -827 0
-987 -969 -828 0
-985 -970 -829 0
-986 -971 -830 0
-987 -972 -831 0
-985 -973 -832 0
-986 -974 -833 0
-987 -975 -834 0
-985 -976 -835 0
-986 -977 -836 0
-987 -978 -837 0
-985 -979 -838 0
-986 -980 -839 0
-987 -981 -840 0
-985 -982 -841 0
-986 -983 -842 0
-987 -984 -843 0
-985 -844 0
-986 -845 0
-987 -846 0
-988 -985 -847 0
-989 -986 -848 0
-990 -987 -849 0
-991 -985 -850 0
-992 -986 -851 0
-993 -987 -852 0
-994 -985 -853 0
-995 -986 -854 0
-996 -987 -855 0
-997 -985 -856 0
-998 -986 -857 0
-999 -987 -858 0
-1000 -985 -859 0
-1001 -986 -860 0
-1002 -987 -861 0
-1003 -985 -862 0
-1004 -986 -863 0
-1005 -987 -864 0
-1006 -985 -865 0
-1007 -986 -866 0
-1008 -987 -867 0
-1009 -985 -868 0
-1010 -986 -869 0
-1011 -987 -870 0
-1012 -985 -871 0
-1013 -986 -872 0
-1014 -987 -873 0
-1015 -985 -874 0
-1016 -986 -875 0
-1017 -987 -876 0
-1018 -985 -877 0
-1019 -986 -878 0
-1020 -987 -879 0
-1021 -985 -880 0
-1022 -986 -881 0
-1023 -987 -882 0
-1024 -985 -883 0
-1025 -986 -884 0
-1026 -987 -885 0
-1027 -985 -886 0
-1028 -986 -887 0
-1029 -987 -888 0
-1006 -145 -1 0
-1007 -146 -2 0
-1008 -147 -3 0
-1006 -148 -4 0
-1007 -149 -5 0
-1008 -150 -6 0
-1006 -151 -7 0
-1007 -152 -8 0
-1008 -153 -9 0
-1006 -154 -10 0
-1007 -155 -11 0
-1008 -156 -12 0
-1006 -157 -13 0
-1007 -158 -14 0
-1008 -159 -15 0
-1006 -160 -16 0
-1007 -161 -17 0
-1008 -162 -18 0
-1006 -163 -19 0
-1007 -164 -20 0
-1008 -165 -21 0
-1006 -166 -22 0
-1007 -167 -23 0
-1008 -168 -24 0
-1006 -169 -25 0
-1007 -170 -26 0
-1008 -171 -27 0
-1006 -172 -28 0
-1007 -173 -29 0
-1008 -174 -30 0
-1006 -175 -31 0
-1007 -176 -32 0
-1008 -177 -33 0
-1006 -178 -34 0
-1007 -179 -35 0
-1008 -180 -36 0
-1006 -181 -37 0
-1007 -182 -38 0
-1008 -183 -39 0
-1006 -184 -40 0
-1007 -185 -41 0
-1008 -186 -42 0
-1006 -187 -43 0
-1007 -188 -44 0
-1008 -189 -45 0
-1006 -190 -46 0
-1007 -191 -47 0
-1008 -192 -48 0
-1006 -193 -49 0
-1007 -194 -50 0
-1008 -195 -51 0
-1006 -196 -52 0
-1007 -197 -53 0
-1008 -198 -54 0
-1006 -199 -55 0
-1007 -200 -56 0
-1008 -201 -57 0
-1006 -202 -58 0
-1007 -203 -59 0
-1008 -204 -60 0
-1006 -205 -61 0
-1007 -206 -62 0
-1008 -207 -63 0
-1006 -208 -64 0
-1007 -209 -65 0
-1008 -210 -66 0
-1006 -211 -67 0
-1007 -212 -68 0
-1008 -213 -69 0
-1006 -214 -70 0
-1007 -215 -71 0
-1008 -216 -72 0
-1006 -217 -73 0
-1007 -218 -74 0
-1008 -219 -75 0
-1006 -220 -76 0
-1007 -221 -77 0
-1008 -222 -78 0
-1006 -223 -79 0
-1007 -224 -80 0
-1008 -225 -81 0
-1006 -226 -82 0
-1007 -227 -83 0
-1008 -228 -84 0
-1006 -229 -85 0
-1007 -230 -86 0
-1008 -231 -87 0
-1006 -232 -88 0
-1007 -233 -89 0
-1008 -234 -90 0
-1006 -235 -91 0
-1007 -236 -92 0
-1008 -237 -93 0
-1006 -238 -94 0
-1007 -239 -95 0
-1008 -240 -96 0
-1006 -241 -97 0
-1007 -242 -98 0
-1008 -243 -99 0
-1006 -244 -100 0
-1007 -245 -101 0
-1008 -246 -102 0
-1006 -247 -103 0
-1007 -248 -104 0
-1008 -249 -105 0
-1006 -250 -106 0
-1007 -251 -107 0
-1008 -252 -108 0
-1006 -253 -109 0
-1007 -254 -110 0
-1008 -255 -111 0
-1006 -256 -112 0
-1007 -257 -113 0
-1008 -258 -114 0
-1006 -259 -115 0
-1007 -260 -116 0
-1008 -261 -117 0
-1006 -262 -118 0
-1007 -263 -119 0
-1008 -264 -120 0
-1006 -265 -121 0
-1007 -266 -122 0
-1008 -267 -123 0
-1006 -268 -124 0
-1007 -269 -125 0
-1008 -270 -126 0
-1006 -271 -127 0
-1007 -272 -128 0
-1008 -273 -129 0
-1006 -274 -130 0
-1007 -275 -131 0
-1008 -276 -132 0
-1006 -277 -133 0
-1007 -278 -134 0
-1008 -279 -135 0
-1006 -280 -136 0
-1007 -281 -137 0
-1008 -282 -138 0
-1006 -283 -139 0
-1007 -284 -140 0
-1008 -285 -141 0
-1006 -286 -142 0
-1007 -287 -143 0
-1008 -288 -144 0
-1006 -289 -145 0
-1007 -290 -146 0
-1008 -291 -147 0
-1006 -292 -148 0
-1007 -293 -149 0
-1008 -294 -150 0
-1006 -295 -151 0
-1007 -296 -152 0
-1008 -297 -153 0
-1006 -298 -154 0
-1007 -299 -155 0
-1008 -300 -156 0
-1006 -301 -157 0
-1007 -302 -158 0
-1008 -303 -159 0
-1006 -304 -160 0
-1007 -305 -161 0
-1008 -306 -162 0
-1006 -307 -163 0
-1007 -308 -164 0
-1008 -309 -165 0
-1006 -310 -166 0
-1007 -311 -167 0
-1008 -312 -168 0
-1006 -313 -169 0
-1007 -314 -170 0
-1008 -315 -171 0
-1006 -316 -172 0
-1007 -317 -173 0
-1008 -318 -174 0
-1006 -319 -175 0
-1007 -320 -176 0
-1008 -321 -177 0
-1006 -322 -178 0
-1007 -323 -179 0
-1008 -324 -180 0
-1006 -325 -181 0
-1007 -326 -182 0
-1008 -327 -183 0
-1006 -328 -184 0
-1007 -329 -185 0
-1008 -330 -186 0
-1006 -331 -187 0
-1007 -332 -188 0
-1008 -333 -189 0
-1006 -334 -190 0
-1007 -335 -191 0
-1008 -336 -192 0
-1006 -337 -193 0
-1007 -338 -194 0
-1008 -339 -195 0
-1006 -340 -196 0
-1007 -341 -197 0
-1008 -342 -198 0
-1006 -343 -199 0
-1007 -344 -200 0
-1008 -345 -201 0
-1006 -346 -202 0
-1007 -347 -203 0
-1008 -348 -204 0
-1006 -349 -205 0
-1007 -350 -206 0
-1008 -351 -207 0
-1006 -352 -208 0
-1007 -353 -209 0
-1008 -354 -210 0
-1006 -355 -211 0
-1007 -356 -212 0
-1008 -357 -213 0
-1006 -358 -214 0
-1007 -359 -215 0
-1008 -360 -216 0
-1006 -361 -217 0
-1007 -362 -218 0
-1008 -363 -219 0
-1006 -364 -220 0
-1007 -365 -221 0
-1008 -366 -222 0
-1006 -367 -223 0
-1007 -368 -224 0
-1008 -369 -225 0
-1006 -370 -226 0
-1007 -371 -227 0
-1008 -372 -228 0
-1006 -373 -229 0
-1007 -374 -230 0
-1008 -375 -231 0
-1006 -376 -232 0
-1007 -377 -233 0
-1008 -378 -234 0
-1006 -379 -235 0
-1007 -380 -236 0
-1008 -381 -237 0
-1006 -382 -238 0
-1007 -383 -239 0
-1008 -384 -240 0
-1006 -385 -241 0
-1007 -386 -242 0
-1008 -387 -243 0
-1006 -388 -244 0
-1007 -389 -245 0
-1008 -390 -246 0
-1006 -391 -247 0
-1007 -392 -248 0
-1008 -393 -249 0
-1006 -394 -250 0
-1007 -395 -251 0
-1008 -396 -252 0
-1006 -397 -253 0
-1007 -398 -254 0
-1008 -399 -255 0
-1006 -400 -256 0
-1007 -401 -257 0
-1008 -402 -258 0
-1006 -403 -259 0
-1007 -404 -260 0
-1008 -405 -261 0
-1006 -406 -262 0
-1007 -407 -263 0
-1008 -408 -264 0
-1006 -409 -265 0
-1007 -410 -266 0
-1008 -411 -267 0
-1006 -412 -268 0
-1007 -413 -269 0
-1008 -414 -270 0
-1006 -415 -271 0
-1007 -416 -272 0
-1008 -417 -273 0
-1006 -418 -274 0
-1007 -419 -275 0
-1008 -420 -276 0
-1006 -421 -277 0
-1007 -422 -278 0
-1008 -423 -279 0
-1006 -424 -280 0
-1007 -425 -281 0
-1008 -426 -282 0
-1006 -427 -283 0
-1007 -428 -284 0
-1008 -429 -285 0
-1006 -430 -286 0
-1007 -431 -287 0
-1008 -432 -288 0
-1006 -433 -289 0
-1007 -434 -290 0
-1008 -435 -291 0
-1006 -436 -292 0
-1007 -437 -293 0
-1008 -438 -294 0
-1006 -439 -295 0
-1007 -440 -296 0
-1008 -441 -297 0
-1006 -442 -298 0
-1007 -443 -299 0
-1008 -444 -300 0
-1006 -445 -301 0
-1007 -446 -302 0
-1008 -447 -303 0
-1006 -448 -304 0
-1007 -449 -305 0
-1008 -450 -306 0
-1006 -451 -307 0
-1007 -452 -308 0
-1008 -453 -309 0
-1006 -454 -310 0
-1007 -455 -311 0
-1008 -456 -312 0
-1006 -457 -313 0
-1007 -458 -314 0
-1008 -459 -315 0
-1006 -460 -316 0
-1007 -461 -317 0
-1008 -462 -318 0
-1006 -463 -319 0
-1007 -464 -320 0
-1008 -465 -321 0
-1006 -466 -322 0
-1007 -467 -323 0
-1008 -468 -324 0
-1006 -469 -325 0
-1007 -470 -326 0
-1008 -471 -327 0
-1006 -472 -328 0
-1007 -473 -329 0
-1008 -474 -330 0
-1006 -475 -331 0
-1007 -476 -332 0
-1008 -477 -333 0
-1006 -478 -334 0
-1007 -479 -335 0
-1008 -480 -336 0
-1006 -481 -337 0
-1007 -482 -338 0
-1008 -483 -339 0
-1006 -484 -340 0
-1007 -485 -341 0
-1008 -486 -342 0
-1006 -487 -343 0
-1007 -488 -344 0
-1008 -489 -345 0
-1006 -490 -346 0
-1007 -491 -347 0
-1008 -492 -348 0
-1006 -493 -349 0
-1007 -494 -350 0
-1008 -495 -351 0
-1006 -496 -352 0
-1007 -497 -353 0
-1008 -498 -354 0
-1006 -499 -355 0
-1007 -500 -356 0
-1008 -501 -357 0
-1006 -502 -358 0
-1007 -503 -359 0
-1008 -504 -360 0
-1006 -505 -361 0
-1007 -506 -362 0
-1008 -507 -363 0
-1006 -508 -364 0
-1007 -509 -365 0
-1008 -510 -366 0
-1006 -511 -367 0
-1007 -512 -368 0
-1008 -513 -369 0
-1006 -514 -370 0
-1007 -515 -371 0
-1008 -516 -372 0
-1006 -517 -373 0
-1007 -518 -374 0
-1008 -519 -375 0
-1006 -520 -376 0
-1007 -521 -377 0
-1008 -522 -378 0
-1006 -523 -379 0
-1007 -524 -380 0
-1008 -525 -381 0
-1006 -526 -382 0
-1007 -527 -383 0
-1008 -528 -384 0
-1006 -529 -385 0
-1007 -530 -386 0
-1008 -531 -387 0
-1006 -532 -388 0
-1007 -533 -389 0
-1008 -534 -390 0
-1006 -535 -391 0
-1007 -536 -392 0
-1008 -537 -393 0
-1006 -538 -394 0
-1007 -539 -395 0
-1008 -540 -396 0
-1006 -541 -397 0
-1007 -542 -398 0
-1008 -543 -399 0
-1006 -544 -400 0
-1007 -545 -401 0
-1008 -546 -402 0
-1006 -547 -403 0
-1007 -548 -404 0
-1008 -549 -405 0
-1006 -550 -406 0
-1007 -551 -407 0
-1008 -552 -408 0
-1006 -553 -409 0
-1007 -554 -410 0
-1008 -555 -411 0
-1006 -556 -412 0
-1007 -557 -413 0
-1008 -558 -414 0
-1006 -559 -415 0
-1007 -560 -416 0
-1008 -561 -417 0
-1006 -562 -418 0
-1007 -563 -419 0
-1008 -564 -420 0
-1006 -565 -421 0
-1007 -566 -422 0
-1008 -567 -423 0
-1006 -568 -424 0
-1007 -569 -425 0
-1008 -570 -426 0
-1006 -571 -427 0
-1007 -572 -428 0
-1008 -573 -429 0
-1006 -574 -430 0
-1007 -575 -431 0
-1008 -576 -432 0
-1006 -577 -433 0
-1007 -578 -434 0
-1008 -579 -435 0
-1006 -580 -436 0
-1007 -581 -437 0
-1008 -582 -438 0
-1006 -583 -439 0
-1007 -584 -440 0
-1008 -585 -441 0
-1006 -586 -442 0
-1007 -587 -443 0
-1008 -588 -444 0
-1006 -589 -445 0
-1007 -590 -446 0
-1008 -591 -447 0
-1006 -592 -448 0
-1007 -593 -449 0
-1008 -594 -450 0
-1006 -595 -451 0
-1007 -596 -452 0
-1008 -597 -453 0
-1006 -598 -454 0
-1007 -599 -455 0
-1008 -600 -456 0
-1006 -601 -457 0
-1007 -602 -458 0
-1008 -603 -459 0
-1006 -604 -460 0
-1007 -605 -461 0
-1008 -606 -462 0
-1006 -607 -463 0
-1007 -608 -464 0
-1008 -609 -465 0
-1006 -610 -466 0
-1007 -611 -467 0
-1008 -612 -468 0
-1006 -613 -469 0
-1007 -614 -470 0
-1008 -615 -471 0
-1006 -616 -472 0
-1007 -617 -473 0
-1008 -618 -474 0
-1006 -619 -475 0
-1007 -620 -476 0
-1008 -621 -477 0
-1006 -622 -478 0
-1007 -623 -479 0
-1008 -624 -480 0
-1006 -625 -481 0
-1007 -626 -482 0
-1008 -627 -483 0
-1006 -628 -484 0
-1007 -629 -485 0
-1008 -630 -486 0
-1006 -631 -487 0
-1007 -632 -488 0
-1008 -633 -489 0
-1006 -634 -490 0
-1007 -635 -491 0
-1008 -636 -492 0
-1006 -637 -493 0
-1007 -638 -494 0
-1008 -639 -495 0
-1006 -640 -496 0
-1007 -641 -497 0
-1008 -642 -498 0
-1006 -643 -499 0
-1007 -644 -500 0
-1008 -645 -501 0
-1006 -646 -502 0
-1007 -647 -503 0
-1008 -648 -504 0
-1006 -649 -505 0
-1007 -650 -506 0
-1008 -651 -507 0
-1006 -652 -508 0
-1007 -653 -509 0
-1008 -654 -510 0
-1006 -655 -511 0
-1007 -656 -512 0
-1008 -657 -513 0
-1006 -658 -514 0
-1007 -659 -515 0
-1008 -660 -516 0
-1006 -661 -517 0
-1007 -662 -518 0
-1008 -663 -519 0
-1006 -664 -520 0
-1007 -665 -521 0
-1008 -666 -522 0
-1006 -667 -523 0
-1007 -668 -524 0
-1008 -669 -525 0
-1006 -670 -526 0
-1007 -671 -527 0
-1008 -672 -528 0
-1006 -673 -529 0
-1007 -674 -530 0
-1008 -675 -531 0
-1006 -676 -532 0
-1007 -677 -533 0
-1008 -678 -534 0
-1006 -679 -535 0
-1007 -680 -536 0
-1008 -681 -537 0
-1006 -682 -538 0
-1007 -683 -539 0
-1008 -684 -540 0
-1006 -685 -541 0
-1007 -686 -542 0
-1008 -687 -543 0
-1006 -688 -544 0
-1007 -689 -545 0
-1008 -690 -546 0
-1006 -691 -547 0
-1007 -692 -548 0
-1008 -693 -549 0
-1006 -694 -550 0
-1007 -695 -551 0
-1008 -696 -552 0
-1006 -697 -553 0
-1007 -698 -554 0
-1008 -699 -555 0
-1006 -700 -556 0
-1007 -701 -557 0
-1008 -702 -558 0
-1006 -703 -559 0
-1007 -704 -560 0
-1008 -705 -561 0
-1006 -706 -562 0
-1007 -707 -563 0
-1008 -708 -564 0
-1006 -709 -565 0
-1007 -710 -566 0
-1008 -711 -567 0
-1006 -712 -568 0
-1007 -713 -569 0
-1008 -714 -570 0
-1006 -715 -571 0
-1007 -716 -572 0
-1008 -717 -573 0
-1006 -718 -574 0
-1007 -719 -575 0
-1008 -720 -576 0
-1006 -721 -577 0
-1007 -722 -578 0
-1008 -723 -579 0
-1006 -724 -580 0
-1007 -725 -581 0
-1008 -726 -582 0
-1006 -727 -583 0
-1007 -728 -584 0
-1008 -729 -585 0
-1006 -730 -586 0
-1007 -731 -587 0
-1008 -732 -588 0
-1006 -733 -589 0
-1007 -734 -590 0
-1008 -735 -591 0
-1006 -736 -592 0
-1007 -737 -593 0
-1008 -738 -594 0
-1006 -739 -595 0
-1007 -740 -596 0
-1008 -741 -597 0
-1006 -742 -598 0
-1007 -743 -599 0
-1008 -744 -600 0
-1006 -745 -601 0
-1007 -746 -602 0
-1008 -747 -603 0
-1006 -748 -604 0
-1007 -749 -605 0
-1008 -750 -606 0
-1006 -751 -607 0
-1007 -752 -608 0
-1008 -753 -609 0
-1006 -754 -610 0
-1007 -755 -611 0
-1008 -756 -612 0
-1006 -757 -613 0
-1007 -758 -614 0
-1008 -759 -615 0
-1006 -760 -616 0
-1007 -761 -617 0
-1008 -762 -618 0
-1006 -763 -619 0
-1007 -764 -620 0
-1008 -765 -621 0
-1006 -766 -622 0
-1007 -767 -623 0
-1008 -768 -624 0
-1006 -769 -625 0
-1007 -770 -626 0
-1008 -771 -627 0
-1006 -772 -628 0
-1007 -773 -629 0
-1008 -774 -630 0
-1006 -775 -631 0
-1007 -776 -632 0
-1008 -777 -633 0
-1006 -778 -634 0
-1007 -779 -635 0
-1008 -780 -636 0
-1006 -781 -637 0
-1007 -782 -638 0
-1008 -783 -639 0
-1006 -784 -640 0
-1007 -785 -641 0
-1008 -786 -642 0
-1006 -787 -643 0
-1007 -788 -644 0
-1008 -789 -645 0
-1006 -790 -646 0
-1007 -791 -647 0
-1008 -792 -648 0
-1006 -793 -649 0
-1007 -794 -650 0
-1008 -795 -651 0
-1006 -796 -652 0
-1007 -797 -653 0
-1008 -798 -654 0
-1006 -799 -655 0
-1007 -800 -656 0
-1008 -801 -657 0
-1006 -802 -658 0
-1007 -803 -659 0
-1008 -804 -660 0
-1006 -805 -661 0
-1007 -806 -662 0
-1008 -807 -663 0
-1006 -808 -664 0
-1007 -809 -665 0
-1008 -810 -666 0
-1006 -811 -667 0
-1007 -812 -668 0
-1008 -813 -669 0
-1006 -814 -670 0
-1007 -815 -671 0
-1008 -816 -672 0
-1006 -817 -673 0
-1007 -818 -674 0
-1008 -819 -675 0
-1006 -820 -676 0
-1007 -821 -677 0
-1008 -822 -678 0
-1006 -823 -679 0
-1007 -824 -680 0
-1008 -825 -681 0
-1006 -826 -682 0
-1007 -827 -683 0
-1008 -828 -684 0
-1006 -829 -685 0
-1007 -830 -686 0
-1008 -831 -687 0
-1006 -832 -688 0
-1007 -833 -689 0
-1008 -834 -690 0
-1006 -835 -691 0
-1007 -836 -692 0
-1008 -837 -693 0
-1006 -838 -694 0
-1007 -839 -695 0
-1008 -840 -696 0
-1006 -841 -697 0
-1007 -842 -698 0
-1008 -843 -699 0
-1006 -844 -700 0
-1007 -845 -701 0
-1008 -846 -702 0
-1006 -847 -703 0
-1007 -848 -704 0
-1008 -849 -705 0
-1006 -850 -706 0
-1007 -851 -707 0
-1008 -852 -708 0
-1006 -853 -709 0
-1007 -854 -710 0
-1008 -855 -711 0
-1006 -856 -712 0
-1007 -857 -713 0
-1008 -858 -714 0
-1006 -859 -715 0
-1007 -860 -716 0
-1008 -861 -717 0
-1006 -862 -718 0
-1007 -863 -719 0
-1008 -864 -720 0
-1006 -865 -721 0
-1007 -866 -722 0
-1008 -867 -723 0
-1006 -868 -724 0
-1007 -869 -725 0
-1008 -870 -726 0
-1006 -871 -727 0
-1007 -872 -728 0
-1008 -873 -729 0
-1006 -874 -730 0
-1007 -875 -731 0
-1008 -876 -732 0
-1006 -877 -733 0
-1007 -878 -734 0
-1008 -879 -735 0
-1006 -880 -736 0
-1007 -881 -737 0
-1008 -882 -738 0
-1006 -883 -739 0
-1007 -884 -740 0
-1008 -885 -741 0
-1006 -886 -742 0
-1007 -887 -743 0
-1008 -888 -744 0
-1006 -889 -745 0
-1007 -890 -746 0
-1008 -891 -747 0
-1006 -892 -748 0
-1007 -893 -749 0
-1008 -894 -750 0
-1006 -895 -751 0
-1007 -896 -752 0
-1008 -897 -753 0
-1006 -898 -754 0
-1007 -899 -755 0
-1008 -900 -756 0
-1006 -901 -757 0
-1007 -902 -758 0
-1008 -903 -759 0
-1006 -904 -760 0
-1007 -905 -761 0
-1008 -906 -762 0
-1006 -907 -763 0
-1007 -908 -764 0
-1008 -909 -765 0
-1006 -910 -766 0
-1007 -911 -767 0
-1008 -912 -768 0
-1006 -913 -769 0
-1007 -914 -770 0
-1008 -915 -771 0
-1006 -916 -772 0
-1007 -917 -773 0
-1008 -918 -774 0
-1006 -919 -775 0
-1007 -920 -776 0
-1008 -921 -777 0
-1006 -922 -778 0
-1007 -923 -779 0
-1008 -924 -780 0
-1006 -925 -781 0
-1007 -926 -782 0
-1008 -927 -783 0
-1006 -928 -784 0
-1007 -929 -785 0
-1008 -930 -786 0
-1006 -931 -787 0
-1007 -932 -788 0
-1008 -933 -789 0
-1006 -934 -790 0
-1007 -935 -791 0
-1008 -936 -792 0
-1006 -937 -793 0
-1007 -938 -794 0
-1008 -939 -795 0
-1006 -940 -796 0
-1007 -941 -797 0
-1008 -942 -798 0
-1006 -943 -799 0
-1007 -944 -800 0
-1008 -945 -801 0
-1006 -946 -802 0
-1007 -947 -803 0
-1008 -948 -804 0
-1006 -949 -805 0
-1007 -950 -806 0
-1008 -951 -807 0
-1006 -952 -808 0
-1007 -953 -809 0
-1008 -954 -810 0
-1006 -955 -811 0
-1007 -956 -812 0
-1008 -957 -813 0
-1006 -958 -814 0
-1007 -959 -815 0
-1008 -960 -816 0
-1006 -961 -817 0
-1007 -962 -818 0
-1008 -963 -819 0
-1006 -964 -820 0
-1007 -965 -821 0
-1008 -966 -822 0
-1006 -967 -823 0
-1007 -968 -824 0
-1008 -969 -825 0
-1006 -970 -826 0
-1007 -971 -827 0
-1008 -972 -828 0
-1006 -973 -829 0
-1007 -974 -830 0
-1008 -975 -831 0
-1006 -976 -832 0
-1007 -977 -833 0
-1008 -978 -834 0
-1006 -979 -835 0
-1007 -980 -836 0
-1008 -981 -837 0
-1006 -982 -838 0
-1007 -983 -839 0
-1008 -984 -840 0
-1006 -985 -841 0
-1007 -986 -842 0
-1008 -987 -843 0
-1006 -988 -844 0
-1007 -989 -845 0
-1008 -990 -846 0
-1006 -991 -847 0
-1007 -992 -848 0
-1008 -993 -849 0
-1006 -994 -850 0
-1007 -995 -851 0
-1008 -996 -852 0
-1006 -997 -853 0
-1007 -998 -854 0
-1008 -999 -855 0
-1006 -1000 -856 0
-1007 -1001 -857 0
-1008 -1002 -858 0
-1006 -1003 -859 0
-1007 -1004 -860 0
-1008 -1005 -861 0
-1006 -862 0
-1007 -863 0
-1008 -864 0
-1009 -1006 -865 0
-1010 -1007 -866 0
-1011 -1008 -867 0
-1012 -1006 -868 0
-1013 -1007 -869 0
-1014 -1008 -870 0
-1015 -1006 -871 0
-1016 -1007 -872 0
-1017 -1008 -873 0
-1018 -1006 -874 0
-1019 -1007 -875 0
-1020 -1008 -876 0
-1021 -1006 -877 0
-1022 -1007 -878 0
-1023 -1008 -879 0
-1024 -1006 -880 0
-1025 -1007 -881 0
-1026 -1008 -882 0
-1027 -1006 -883 0
-1028 -1007 -884 0
-1029 -1008 -885 0
-1027 -148 -1 0
-1028 -149 -2 0
-1029 -150 -3 0
-1027 -151 -4 0
-1028 -152 -5 0
-1029 -153 -6 0
-1027 -154 -7 0
-1028 -155 -8 0
-1029 -156 -9 0
-1027 -157 -10 0
-1028 -158 -11 0
-1029 -159 -12 0
-1027 -160 -13 0
-1028 -161 -14 0
-1029 -162 -15 0
-1027 -163 -16 0
-1028 -164 -17 0
-1029 -165 -18 0
-1027 -166 -19 0
-1028 -167 -20 0
-1029 -168 -21 0
-1027 -169 -22 0
-1028 -170 -23 0
-1029 -171 -24 0
-1027 -172 -25 0
-1028 -173 -26 0
-1029 -174 -27 0
-1027 -175 -28 0
-1028 -176 -29 0
-1029 -177 -30 0
-1027 -178 -31 0
-1028 -179 -32 0
-1029 -180 -33 0
-1027 -181 -34 0
-1028 -182 -35 0
-1029 -183 -36 0
-1027 -184 -37 0
-1028 -185 -38 0
-1029 -186 -39 0
-1027 -187 -40 0
-1028 -188 -41 0
-1029 -189 -42 0
-1027 -190 -43 0
-1028 -191 -44 0
-1029 -192 -45 0
-1027 -193 -46 0
-1028 -194 -47 0
-1029 -195 -48 0
-1027 -196 -49 0
-1028 -197 -50 0
-1029 -198 -51 0
-1027 -199 -52 0
-1028 -200 -53 0
-1029 -201 -54 0
-1027 -202 -55 0
-1028 -203 -56 0
-1029 -204 -57 0
-1027 -205 -58 0
-1028 -206 -59 0
-1029 -207 -60 0
-1027 -208 -61 0
-1028 -209 -62 0
-1029 -210 -63 0
-1027 -211 -64 0
-1028 -212 -65 0
-1029 -213 -66 0
-1027 -214 -67 0
-1028 -215 -68 0
-1029 -216 -69 0
-1027 -217 -70 0
-1028 -218 -71 0
-1029 -219 -72 0
-1027 -220 -73 0
-1028 -221 -74 0
-1029 -222 -75 0
-1027 -223 -76 0
-1028 -224 -77 0
-1029 -225 -78 0
-1027 -226 -79 0
-1028 -227 -80 0
-1029 -228 -81 0
-1027 -229 -82 0
-1028 -230 -83 0
-1029 -231 -84 0
-1027 -232 -85 0
-1028 -233 -86 0
-1029 -234 -87 0
-1027 -235 -88 0
-1028 -236 -89 0
-1029 -237 -90 0
-1027 -238 -91 0
-1028 -239 -92 0
-1029 -240 -93 0
-1027 -241 -94 0
-1028 -242 -95 0
-1029 -243 -96 0
-1027 -244 -97 0
-1028 -245 -98 0
-1029 -246 -99 0
-1027 -247 -100 0
-1028 -248 -101 0
-1029 -249 -102 0
-1027 -250 -103 0
-1028 -251 -104 0
-1029 -252 -105 0
-1027 -253 -106 0
-1028 -254 -107 0
-1029 -255 -108 0
-1027 -256 -109 0
-1028 -257 -110 0
-1029 -258 -111 0
-1027 -259 -112 0
-1028 -260 -113 0
-1029 -261 -114 0
-1027 -262 -115 0
-1028 -263 -116 0
-1029 -264 -117 0
-1027 -265 -118 0
-1028 -266 -119 0
-1029 -267 -120 0
-1027 -268 -121 0
-1028 -269 -122 0
-1029 -270 -123 0
-1027 -271 -124 0
-1028 -272 -125 0
-1029 -273 -126 0
-1027 -274 -127 0
-1028 -275 -128 0
-1029 -276 -129 0
-1027 -277 -130 0
-1028 -278 -131 0
-1029 -279 -132 0
-1027 -280 -133 0
-1028 -281 -134 0
-1029 -282 -135 0
-1027 -283 -136 0
-1028 -284 -137 0
-1029 -285 -138 0
-1027 -286 -139 0
-1028 -287 -140 0
-1029 -288 -141 0
-1027 -289 -142 0
-1028 -290 -143 0
-1029 -291 -144 0
-1027 -292 -145 0
-1028 -293 -146 0
-1029 -294 -147 0
-1027 -295 -148 0
-1028 -296 -149 0
-1029 -297 -150 0
-1027 -298 -151 0
-1028 -299 -152 0
-1029 -300 -153 0
-1027 -301 -154 0
-1028 -302 -155 0
-1029 -303 -156 0
-1027 -304 -157 0
-1028 -305 -158 0
-1029 -306 -159 0
-1027 -307 -160 0
-1028 -308 -161 0
-1029 -309 -162 0
-1027 -310 -163 0
-1028 -311 -164 0
-1029 -312 -165 0
-1027 -313 -166 0
-1028 -314 -167 0
-1029 -315 -168 0
-1027 -316 -169 0
-1028 -317 -170 0
-1029 -318 -171 0
-1027 -319 -172 0
-1028 -320 -173 0
-1029 -321 -174 0
-1027 -322 -175 0
-1028 -323 -176 0
-1029 -324 -177 0
-1027 -325 -178 0
-1028 -326 -179 0
-1029 -327 -180 0
-1027 -328 -181 0
-1028 -329 -182 0
-1029 -330 -183 0
-1027 -331 -184 0
-1028 -332 -185 0
-1029 -333 -186 0
-1027 -334 -187 0
-1028 -335 -188 0
-1029 -336 -189 0
-1027 -337 -190 0
-1028 -338 -191 0
-1029 -339 -192 0
-1027 -340 -193 0
-1028 -341 -194 0
-1029 -342 -195 0
-1027 -343 -196 0
-1028 -344 -197 0
-1029 -345 -198 0
-1027 -346 -199 0
-1028 -347 -200 0
-1029 -348 -201 0
-1027 -349 -202 0
-1028 -350 -203 0
-1029 -351 -204 0
-1027 -352 -205 0
-1028 -353 -206 0
-1029 -354 -207 0
-1027 -355 -208 0
-1028 -356 -209 0
-1029 -357 -210 0
-1027 -358 -211 0
-1028 -359 -212 0
-1029 -360 -213 0
-1027 -361 -214 0
-1028 -362 -215 0
-1029 -363 -216 0
-1027 -364 -217 0
-1028 -365 -218 0
-1029 -366 -219 0
-1027 -367 -220 0
-1028 -368 -221 0
-1029 -369 -222 0
-1027 -370 -223 0
-1028 -371 -224 0
-1029 -372 -225 0
-1027 -373 -226 0
-1028 -374 -227 0
-1029 -375 -228 0
-1027 -376 -229 0
-1028 -377 -230 0
-1029 -378 -231 0
-1027 -379 -232 0
-1028 -380 -233 0
-1029 -381 -234 0
-1027 -382 -235 0
-1028 -383 -236 0
-1029 -384 -237 0
-1027 -385 -238 0
-1028 -386 -239 0
-1029 -387 -240 0
-1027 -388 -241 0
-1028 -389 -242 0
-1029 -390 -243 0
-1027 -391 -244 0
-1028 -392 -245 0
-1029 -393 -246 0
-1027 -394 -247 0
-1028 -395 -248 0
-1029 -396 -249 0
-1027 -397 -250 0
-1028 -398 -251 0
-1029 -399 -252 0
-1027 -400 -253 0
-1028 -401 -254 0
-1029 -402 -255 0
-1027 -403 -256 0
-1028 -404 -257 0
-1029 -405 -258 0
-1027 -406 -259 0
-1028 -407 -260 0
-1029 -408 -261 0
-1027 -409 -262 0
-1028 -410 -263 0
-1029 -411 -264 0
-1027 -412 -265 0
-1028 -413 -266 0
-1029 -414 -267 0
-1027 -415 -268 0
-1028 -416 -269 0
-1029 -417 -270 0
-1027 -418 -271 0
-1028 -419 -272 0
-1029 -420 -273 0
-1027 -421 -274 0
-1028 -422 -275 0
-1029 -423 -276 0
-1027 -424 -277 0
-1028 -425 -278 0
-1029 -426 -279 0
-1027 -427 -280 0
-1028 -428 -281 0
-1029 -429 -282 0
-1027 -430 -283 0
-1028 -431 -284 0
-1029 -432 -285 0
-1027 -433 -286 0
-1028 -434 -287 0
-1029 -435 -288 0
-1027 -436 -289 0
-1028 -437 -290 0
-1029 -438 -291 0
-1027 -439 -292 0
-1028 -440 -293 0
-1029 -441 -294 0
-1027 -442 -295 0
-1028 -443 -296 0
-1029 -444 -297 0
-1027 -445 -298 0
-1028 -446 -299 0
-1029 -447 -300 0
-1027 -448 -301 0
-1028 -449 -302 0
-1029 -450 -303 0
-1027 -451 -304 0
-1028 -452 -305 0
-1029 -453 -306 0
-1027 -454 -307 0
-1028 -455 -308 0
-1029 -456 -309 0
-1027 -457 -310 0
-1028 -458 -311 0
-1029 -459 -312 0
-1027 -460 -313 0
-1028 -461 -314 0
-1029 -462 -315 0
-1027 -463 -316 0
-1028 -464 -317 0
-1029 -465 -318 0
-1027 -466 -319 0
-1028 -467 -320 0
-1029 -468 -321 0
-1027 -469 -322 0
-1028 -470 -323 0
-1029 -471 -324 0
-1027 -472 -325 0
-1028 -473 -326 0
-1029 -474 -327 0
-1027 -475 -328 0
-1028 -476 -329 0
-1029 -477 -330 0
-1027 -478 -331 0
-1028 -479 -332 0
-1029 -480 -333 0
-1027 -481 -334 0
-1028 -482 -335 0
-1029 -483 -336 0
-1027 -484 -337 0
-1028 -485 -338 0
-1029 -486 -339 0
-1027 -487 -340 0
-1028 -488 -341 0
-1029 -489 -342 0
-1027 -490 -343 0
-1028 -491 -344 0
-1029 -492 -345 0
-1027 -493 -346 0
-1028 -494 -347 0
-1029 -495 -348 0
-1027 -496 -349 0
-1028 -497 -350 0
-1029 -498 -351 0
-1027 -499 -352 0
-1028 -500 -353 0
-1029 -501 -354 0
-1027 -502 -355 0
-1028 -503 -356 0
-1029 -504 -357 0
-1027 -505 -358 0
-1028 -506 -359 0
-1029 -507 -360 0
-1027 -508 -361 0
-1028 -509 -362 0
-1029 -510 -363 0
-1027 -511 -364 0
-1028 -512 -365 0
-1029 -513 -366 0
-1027 -514 -367 0
-1028 -515 -368 0
-1029 -516 -369 0
-1027 -517 -370 0
-1028 -518 -371 0
-1029 -519 -372 0
-1027 -520 -373 0
-1028 -521 -374 0
-1029 -522 -375 0
-1027 -523 -376 0
-1028 -524 -377 0
-1029 -525 -378 0
-1027 -526 -379 0
-1028 -527 -380 0
-1029 -528 -381 0
-1027 -529 -382 0
-1028 -530 -383 0
-1029 -531 -384 0
-1027 -532 -385 0
-1028 -533 -386 0
-1029 -534 -387 0
-1027 -535 -388 0
-1028 -536 -389 0
-1029 -537 -390 0
-1027 -538 -391 0
-1028 -539 -392 0
-1029 -540 -393 0
-1027 -541 -394 0
-1028 -542 -395 0
-1029 -543 -396 0
-1027 -544 -397 0
-1028 -545 -398 0
-1029 -546 -399 0
-1027 -547 -400 0
-1028 -548 -401 0
-1029 -549 -402 0
-1027 -550 -403 0
-1028 -551 -404 0
-1029 -552 -405 0
-1027 -553 -406 0
-1028 -554 -407 0
-1029 -555 -408 0
-1027 -556 -409 0
-1028 -557 -410 0
-1029 -558 -411 0
-1027 -559 -412 0
-1028 -560 -413 0
-1029 -561 -414 0
-1027 -562 -415 0
-1028 -563 -416 0
-1029 -564 -417 0
-1027 -565 -418 0
-1028 -566 -419 0
-1029 -567 -420 0
-1027 -568 -421 0
-1028 -569 -422 0
-1029 -570 -423 0
-1027 -571 -424 0
-1028 -572 -425 0
-1029 -573 -426 0
-1027 -574 -427 0
-1028 -575 -428 0
-1029 -576 -429 0
-1027 -577 -430 0
-1028 -578 -431 0
-1029 -579 -432 0
-1027 -580 -433 0
-1028 -581 -434 0
-1029 -582 -435 0
-1027 -583 -436 0
-1028 -584 -437 0
-1029 -585 -438 0
-1027 -586 -439 0
-1028 -587 -440 0
-1029 -588 -441 0
-1027 -589 -442 0
-1028 -590 -443 0
-1029 -591 -444 0
-1027 -592 -445 0
-1028 -593 -446 0
-1029 -594 -447 0
-1027 -595 -448 0
-1028 -596 -449 0
-1029 -597 -450 0
-1027 -598 -451 0
-1028 -599 -452 0
-1029 -600 -453 0
-1027 -601 -454 0
-1028 -602 -455 0
-1029 -603 -456 0
-1027 -604 -457 0
-1028 -605 -458 0
-1029 -606 -459 0
-1027 -607 -460 0
-1028 -608 -461 0
-1029 -609 -462 0
-1027 -610 -463 0
-1028 -611 -464 0
-1029 -612 -465 0
-1027 -613 -466 0
-1028 -614 -467 0
-1029 -615 -468 0
-1027 -616 -469 0
-1028 -617 -470 0
-1029 -618 -471 0
-1027 -619 -472 0
-1028 -620 -473 0
-1029 -621 -474 0
-1027 -622 -475 0
-1028 -623 -476 0
-1029 -624 -477 0
-1027 -625 -478 0
-1028 -626 -479 0
-1029 -627 -480 0
-1027 -628 -481 0
-1028 -629 -482 0
-1029 -630 -483 0
-1027 -631 -484 0
-1028 -632 -485 0
-1029 -633 -486 0
-1027 -634 -487 0
-1028 -635 -488 0
-1029 -636 -489 0
-1027 -637 -490 0
-1028 -638 -491 0
-1029 -639 -492 0
-1027 -640 -493 0
-1028 -641 -494 0
-1029 -642 -495 0
-1027 -643 -496 0
-1028 -644 -497 0
-1029 -645 -498 0
-1027 -646 -499 0
-1028 -647 -500 0
-1029 -648 -501 0
-1027 -649 -502 0
-1028 -650 -503 0
-1029 -651 -504 0
-1027 -652 -505 0
-1028 -653 -506 0
-1029 -654 -507 0
-1027 -655 -508 0
-1028 -656 -509 0
-1029 -657 -510 0
-1027 -658 -511 0
-1028 -659 -512 0
-1029 -660 -513 0
-1027 -661 -514 0
-1028 -662 -515 0
-1029 -663 -516 0
-1027 -664 -517 0
-1028 -665 -518 0
-1029 -666 -519 0
-1027 -667 -520 0
-1028 -668 -521 0
-1029 -669 -522 0
-1027 -670 -523 0
-1028 -671 -524 0
-1029 -672 -525 0
-1027 -673 -526 0
-1028 -674 -527 0
-1029 -675 -528 0
-1027 -676 -529 0
-1028 -677 -530 0
-1029 -678 -531 0
-1027 -679 -532 0
-1028 -680 -533 0
-1029 -681 -534 0
-1027 -682 -535 0
-1028 -683 -536 0
-1029 -684 -537 0
-1027 -685 -538 0
-1028 -686 -539 0
-1029 -687 -540 0
-1027 -688 -541 0
-1028 -689 -542 0
-1029 -690 -543 0
-1027 -691 -544 0
-1028 -692 -545 0
-1029 -693 -546 0
-1027 -694 -547 0
-1028 -695 -548 0
-1029 -696 -549 0
-1027 -697 -550 0
-1028 -698 -551 0
-1029 -699 -552 0
-1027 -700 -553 0
-1028 -701 -554 0
-1029 -702 -555 0
-1027 -703 -556 0
-1028 -704 -557 0
-1029 -705 -558 0
-1027 -706 -559 0
-1028 -707 -560 0
-1029 -708 -561 0
-1027 -709 -562 0
-1028 -710 -563 0
-1029 -711 -564 0
-1027 -712 -565 0
-1028 -713 -566 0
-1029 -714 -567 0
-1027 -715 -568 0
-1028 -716 -569 0
-1029 -717 -570 0
-1027 -718 -571 0
-1028 -719 -572 0
-1029 -720 -573 0
-1027 -721 -574 0
-1028 -722 -575 0
-1029 -723 -576 0
-1027 -724 -577 0
-1028 -725 -578 0
-1029 -726 -579 0
-1027 -727 -580 0
-1028 -728 -581 0
-1029 -729 -582 0
-1027 -730 -583 0
-1028 -731 -584 0
-1029 -732 -585 0
-1027 -733 -586 0
-1028 -734 -587 0
-1029 -735 -588 0
-1027 -736 -589 0
-1028 -737 -590 0
-1029 -738 -591 0
-1027 -739 -592 0
-1028 -740 -593 0
-1029 -741 -594 0
-1027 -742 -595 0
-1028 -743 -596 0
-1029 -744 -597 0
-1027 -745 -598 0
-1028 -746 -599 0
-1029 -747 -600 0
-1027 -748 -601 0
-1028 -749 -602 0
-1029 -750 -603 0
-1027 -751 -604 0
-1028 -752 -605 0
-1029 -753 -606 0
-1027 -754 -607 0
-1028 -755 -608 0
-1029 -756 -609 0
-1027 -757 -610 0
-1028 -758 -611 0
-1029 -759 -612 0
-1027 -760 -613 0
-1028 -761 -614 0
-1029 -762 -615 0
-1027 -763 -616 0
-1028 -764 -617 0
-1029 -765 -618 0
-1027 -766 -619 0
-1028 -767 -620 0
-1029 -768 -621 0
-1027 -769 -622 0
-1028 -770 -623 0
-1029 -771 -624 0
-1027 -772 -625 0
-1028 -773 -626 0
-1029 -774 -627 0
-1027 -775 -628 0
-1028 -776 -629 0
-1029 -777 -630 0
-1027 -778 -631 0
-1028 -779 -632 0
-1029 -780 -633 0
-1027 -781 -634 0
-1028 -782 -635 0
-1029 -783 -636 0
-1027 -784 -637 0
-1028 -785 -638 0
-1029 -786 -639 0
-1027 -787 -640 0
-1028 -788 -641 0
-1029 -789 -642 0
-1027 -790 -643 0
-1028 -791 -644 0
-1029 -792 -645 0
-1027 -793 -646 0
-1028 -794 -647 0
-1029 -795 -648 0
-1027 -796 -649 0
-1028 -797 -650 0
-1029 -798 -651 0
-1027 -799 -652 0
-1028 -800 -653 0
-1029 -801 -654 0
-1027 -802 -655 0
-1028 -803 -656 0
-1029 -804 -657 0
-1027 -805 -658 0
-1028 -806 -659 0
-1029 -807 -660 0
-1027 -808 -661 0
-1028 -809 -662 0
-1029 -810 -663 0
-1027 -811 -664 0
-1028 -812 -665 0
-1029 -813 -666 0
-1027 -814 -667 0
-1028 -815 -668 0
-1029 -816 -669 0
-1027 -817 -670 0
-1028 -818 -671 0
-1029 -819 -672 0
-1027 -820 -673 0
-1028 -821 -674 0
-1029 -822 -675 0
-1027 -823 -676 0
-1028 -824 -677 0
-1029 -825 -678 0
-1027 -826 -679 0
-1028 -827 -680 0
-1029 -828 -681 0
-1027 -829 -682 0
-1028 -830 -683 0
-1029 -831 -684 0
-1027 -832 -685 0
-1028 -833 -686 0
-1029 -834 -687 0
-1027 -835 -688 0
-1028 -836 -689 0
-1029 -837 -690 0
-1027 -838 -691 0
-1028 -839 -692 0
-1029 -840 -693 0
-1027 -841 -694 0
-1028 -842 -695 0
-1029 -843 -696 0
-1027 -844 -697 0
-1028 -845 -698 0
-1029 -846 -699 0
-1027 -847 -700 0
-1028 -848 -701 0
-1029 -849 -702 0
-1027 -850 -703 0
-1028 -851 -704 0
-1029 -852 -705 0
-1027 -853 -706 0
-1028 -854 -707 0
-1029 -855 -708 0
-1027 -856 -709 0
-1028 -857 -710 0
-1029 -858 -711 0
-1027 -859 -712 0
-1028 -860 -713 0
-1029 -861 -714 0
-1027 -862 -715 0
-1028 -863 -716 0
-1029 -864 -717 0
-1027 -865 -718 0
-1028 -866 -719 0
-1029 -867 -720 0
-1027 -868 -721 0
-1028 -869 -722 0
-1029 -870 -723 0
-1027 -871 -724 0
-1028 -872 -725 0
-1029 -873 -726 0
-1027 -874 -727 0
-1028 -875 -728 0
-1029 -876 -729 0
-1027 -877 -730 0
-1028 -878 -731 0
-1029 -879 -732 0
-1027 -880 -733 0
-1028 -881 -734 0
-1029 -882 -735 0
-1027 -883 -736 0
-1028 -884 -737 0
-1029 -885 -738 0
-1027 -886 -739 0
-1028 -887 -740 0
-1029 -888 -741 0
-1027 -889 -742 0
-1028 -890 -743 0
-1029 -891 -744 0
-1027 -892 -745 0
-1028 -893 -746 0
-1029 -894 -747 0
-1027 -895 -748 0
-1028 -896 -749 0
-1029 -897 -750 0
-1027 -898 -751 0
-1028 -899 -752 0
-1029 -900 -753 0
-1027 -901 -754 0
-1028 -902 -755 0
-1029 -903 -756 0
-1027 -904 -757 0
-1028 -905 -758 0
-1029 -906 -759 0
-1027 -907 -760 0
-1028 -908 -761 0
-1029 -909 -762 0
-1027 -910 -763 0
-1028 -911 -764 0
-1029 -912 -765 0
-1027 -913 -766 0
-1028 -914 -767 0
-1029 -915 -768 0
-1027 -916 -769 0
-1028 -917 -770 0
-1029 -918 -771 0
-1027 -919 -772 0
-1028 -920 -773 0
-1029 -921 -774 0
-1027 -922 -775 0
-1028 -923 -776 0
-1029 -924 -777 0
-1027 -925 -778 0
-1028 -926 -779 0
-1029 -927 -780 0
-1027 -928 -781 0
-1028 -929 -782 0
-1029 -930 -783 0
-1027 -931 -784 0
-1028 -932 -785 0
-1029 -933 -786 0
-1027 -934 -787 0
-1028 -935 -788 0
-1029 -936 -789 0
-1027 -937 -790 0
-1028 -938 -791 0
-1029 -939 -792 0
-1027 -940 -793 0
-1028 -941 -794 0
-1029 -942 -795 0
-1027 -943 -796 0
-1028 -944 -797 0
-1029 -945 -798 0
-1027 -946 -799 0
-1028 -947 -800 0
-1029 -948 -801 0
-1027 -949 -802 0
-1028 -950 -803 0
-1029 -951 -804 0
-1027 -952 -805 0
-1028 -953 -806 0
-1029 -954 -807 0
-1027 -955 -808 0
-1028 -956 -809 0
-1029 -957 -810 0
-1027 -958 -811 0
-1028 -959 -812 0
-1029 -960 -813 0
-1027 -961 -814 0
-1028 -962 -815 0
-1029 -963 -816 0
-1027 -964 -817 0
-1028 -965 -818 0
-1029 -966 -819 0
-1027 -967 -820 0
-1028 -968 -821 0
-1029 -969 -822 0
-1027 -970 -823 0
-1028 -971 -824 0
-1029 -972 -825 0
-1027 -973 -826 0
-1028 -974 -827 0
-1029 -975 -828 0
-1027 -976 -829 0
-1028 -977 -830 0
-1029 -978 -831 0
-1027 -979 -832 0
-1028 -980 -833 0
-1029 -981 -834 0
-1027 -982 -835 0
-1028 -983 -836 0
-1029 -984 -837 0
-1027 -985 -838 0
-1028 -986 -839 0
-1029 -987 -840 0
-1027 -988 -841 0
-1028 -989 -842 0
-1029 -990 -843 0
-1027 -991 -844 0
-1028 -992 -845 0
-1029 -993 -846 0
-1027 -994 -847 0
-1028 -995 -848 0
-1029 -996 -849 0
-1027 -997 -850 0
-1028 -998 -851 0
-1029 -999 -852 0
-1027 -1000 -853 0
-1028 -1001 -854 0
-1029 -1002 -855 0
-1027 -1003 -856 0
-1028 -1004 -857 0
-1029 -1005 -858 0
-1027 -1006 -859 0
-1028 -1007 -860 0
-1029 -1008 -861 0
-1027 -1009 -862 0
-1028 -1010 -863 0
-1029 -1011 -864 0
-1027 -1012 -865 0
-1028 -1013 -866 0
-1029 -1014 -867 0
-1027 -1015 -868 0
-1028 -1016 -869 0
-1029 -1017 -870 0
-1027 -1018 -871 0
-1028 -1019 -872 0
-1029 -1020 -873 0
-1027 -1021 -874 0
-1028 -1022 -875 0
-1029 -1023 -876 0
-1027 -1024 -877 0
-1028 -1025 -878 0
-1029 -1026 -879 0
-1027 -880 0
-1028 -881 0
-1029 -882 0
