p cnf 81 702
1 2 3 0
-1 -2 0
-1 -3 0
-2 -3 0
4 5 6 0
-4 -5 0
-4 -6 0
-5 -6 0
7 8 9 0
-7 -8 0
-7 -9 0
-8 -9 0
10 11 12 0
-10 -11 0
-10 -12 0
-11 -12 0
13 14 15 0
-13 -14 0
-13 -15 0
-14 -15 0
16 17 18 0
-16 -17 0
-16 -18 0
-17 -18 0
19 20 21 0
-19 -20 0
-19 -21 0
-20 -21 0
22 23 24 0
-22 -23 0
-22 -24 0
-23 -24 0
25 26 27 0
-25 -26 0
-25 -27 0
-26 -27 0
28 29 30 0
-28 -29 0
-28 -30 0
-29 -30 0
31 32 33 0
-31 -32 0
-31 -33 0
-32 -33 0
34 35 36 0
-34 -35 0
-34 -36 0
-35 -36 0
37 38 39 0
-37 -38 0
-37 -39 0
-38 -39 0
40 41 42 0
-40 -41 0
-40 -42 0
-41 -42 0
43 44 45 0
-43 -44 0
-43 -45 0
-44 -45 0
46 47 48 0
-46 -47 0
-46 -48 0
-47 -48 0
49 50 51 0
-49 -50 0
-49 -51 0
-50 -51 0
52 53 54 0
-52 -53 0
-52 -54 0
-53 -54 0
55 56 57 0
-55 -56 0
-55 -57 0
-56 -57 0
58 59 60 0
-58 -59 0
-58 -60 0
-59 -60 0
61 62 63 0
-61 -62 0
-61 -63 0
-62 -63 0
64 65 66 0
-64 -65 0
-64 -66 0
-65 -66 0
67 68 69 0
-67 -68 0
-67 -69 0
-68 -69 0
70 71 72 0
-70 -71 0
-70 -72 0
-71 -72 0
73 74 75 0
-73 -74 0
-73 -75 0
-74 -75 0
76 77 78 0
-76 -77 0
-76 -78 0
-77 -78 0
79 80 81 0
-79 -80 0
-79 -81 0
-80 -81 0
-7 -4 -1 0
-8 -5 -2 0
-9 -6 -3 0
-7 -4 0
-8 -5 0
-9 -6 0
-10 -7 0
-11 -8 0
-12 -9 0
-13 -10 -7 0
-14 -11 -8 0
-15 -12 -9 0
-16 -13 -7 0
-17 -14 -8 0
-18 -15 -9 0
-19 -16 -7 0
-20 -17 -8 0
-21 -18 -9 0
-22 -19 -7 0
-23 -20 -8 0
-24 -21 -9 0
-25 -22 -7 0
-26 -23 -8 0
-27 -24 -9 0
-28 -25 -7 0
-29 -26 -8 0
-30 -27 -9 0
-31 -28 -7 0
-32 -29 -8 0
-33 -30 -9 0
-34 -31 -7 0
-35 -32 -8 0
-36 -33 -9 0
-37 -34 -7 0
-38 -35 -8 0
-39 -36 -9 0
-40 -37 -7 0
-41 -38 -8 0
-42 -39 -9 0
-43 -40 -7 0
-44 -41 -8 0
-45 -42 -9 0
-46 -43 -7 0
-47 -44 -8 0
-48 -45 -9 0
-49 -46 -7 0
-50 -47 -8 0
-51 -48 -9 0
-52 -49 -7 0
-53 -50 -8 0
-54 -51 -9 0
-55 -52 -7 0
-56 -53 -8 0
-57 -54 -9 0
-58 -55 -7 0
-59 -56 -8 0
-60 -57 -9 0
-61 -58 -7 0
-62 -59 -8 0
-63 -60 -9 0
-64 -61 -7 0
-65 -62 -8 0
-66 -63 -9 0
-67 -64 -7 0
-68 -65 -8 0
-69 -66 -9 0
-70 -67 -7 0
-71 -68 -8 0
-72 -69 -9 0
-73 -70 -7 0
-74 -71 -8 0
-75 -72 -9 0
-76 -73 -7 0
-77 -74 -8 0
-78 -75 -9 0
-79 -76 -7 0
-80 -77 -8 0
-81 -78 -9 0
-16 -7 -1 0
-17 -8 -2 0
-18 -9 -3 0
-16 -10 -4 0
-17 -11 -5 0
-18 -12 -6 0
-16 -13 -7 0
-17 -14 -8 0
-18 -15 -9 0
-16 -10 0
-17 -11 0
-18 -12 0
-19 -16 -13 0
-20 -17 -14 0
-21 -18 -15 0
-22 -16 0
-23 -17 0
-24 -18 0
-25 -19 -16 0
-26 -20 -17 0
-27 -21 -18 0
-28 -22 -16 0
-29 -23 -17 0
-30 -24 -18 0
-31 -25 -16 0
-32 -26 -17 0
-33 -27 -18 0
-34 -28 -16 0
-35 -29 -17 0
-36 -30 -18 0
-37 -31 -16 0
-38 -32 -17 0
-39 -33 -18 0
-40 -34 -16 0
-41 -35 -17 0
-42 -36 -18 0
-43 -37 -16 0
-44 -38 -17 0
-45 -39 -18 0
-46 -40 -16 0
-47 -41 -17 0
-48 -42 -18 0
-49 -43 -16 0
-50 -44 -17 0
-51 -45 -18 0
-52 -46 -16 0
-53 -47 -17 0
-54 -48 -18 0
-55 -49 -16 0
-56 -50 -17 0
-57 -51 -18 0
-58 -52 -16 0
-59 -53 -17 0
-60 -54 -18 0
-61 -55 -16 0
-62 -56 -17 0
-63 -57 -18 0
-64 -58 -16 0
-65 -59 -17 0
-66 -60 -18 0
-67 -61 -16 0
-68 -62 -17 0
-69 -63 -18 0
-70 -64 -16 0
-71 -65 -17 0
-72 -66 -18 0
-73 -67 -16 0
-74 -68 -17 0
-75 -69 -18 0
-76 -70 -16 0
-77 -71 -17 0
-78 -72 -18 0
-79 -73 -16 0
-80 -74 -17 0
-81 -75 -18 0
-25 -10 -1 0
-26 -11 -2 0
-27 -12 -3 0
-25 -13 -4 0
-26 -14 -5 0
-27 -15 -6 0
-25 -16 -7 0
-26 -17 -8 0
-27 -18 -9 0
-25 -19 -10 0
-26 -20 -11 0
-27 -21 -12 0
-25 -22 -13 0
-26 -23 -14 0
-27 -24 -15 0
-25 -16 0
-26 -17 0
-27 -18 0
-28 -25 -19 0
-29 -26 -20 0
-30 -27 -21 0
-31 -25 -22 0
-32 -26 -23 0
-33 -27 -24 0
-34 -25 0
-35 -26 0
-36 -27 0
-37 -28 -25 0
-38 -29 -26 0
-39 -30 -27 0
-40 -31 -25 0
-41 -32 -26 0
-42 -33 -27 0
-43 -34 -25 0
-44 -35 -26 0
-45 -36 -27 0
-46 -37 -25 0
-47 -38 -26 0
-48 -39 -27 0
-49 -40 -25 0
-50 -41 -26 0
-51 -42 -27 0
-52 -43 -25 0
-53 -44 -26 0
-54 -45 -27 0
-55 -46 -25 0
-56 -47 -26 0
-57 -48 -27 0
-58 -49 -25 0
-59 -50 -26 0
-60 -51 -27 0
-61 -52 -25 0
-62 -53 -26 0
-63 -54 -27 0
-64 -55 -25 0
-65 -56 -26 0
-66 -57 -27 0
-67 -58 -25 0
-68 -59 -26 0
-69 -60 -27 0
-70 -61 -25 0
-71 -62 -26 0
-72 -63 -27 0
-73 -64 -25 0
-74 -65 -26 0
-75 -66 -27 0
-76 -67 -25 0
-77 -68 -26 0
-78 -69 -27 0
-79 -70 -25 0
-80 -71 -26 0
-81 -72 -27 0
-34 -13 -1 0
-35 -14 -2 0
-36 -15 -3 0
-34 -16 -4 0
-35 -17 -5 0
-36 -18 -6 0
-34 -19 -7 0
-35 -20 -8 0
-36 -21 -9 0
-34 -22 -10 0
-35 -23 -11 0
-36 -24 -12 0
-34 -25 -13 0
-35 -26 -14 0
-36 -27 -15 0
-34 -28 -16 0
-35 -29 -17 0
-36 -30 -18 0
-34 -31 -19 0
-35 -32 -20 0
-36 -33 -21 0
-34 -22 0
-35 -23 0
-36 -24 0
-37 -34 -25 0
-38 -35 -26 0
-39 -36 -27 0
-40 -34 -28 0
-41 -35 -29 0
-42 -36 -30 0
-43 -34 -31 0
-44 -35 -32 0
-45 -36 -33 0
-46 -34 0
-47 -35 0
-48 -36 0
-49 -37 -34 0
-50 -38 -35 0
-51 -39 -36 0
-52 -40 -34 0
-53 -41 -35 0
-54 -42 -36 0
-55 -43 -34 0
-56 -44 -35 0
-57 -45 -36 0
-58 -46 -34 0
-59 -47 -35 0
-60 -48 -36 0
-61 -49 -34 0
-62 -50 -35 0
-63 -51 -36 0
-64 -52 -34 0
-65 -53 -35 0
-66 -54 -36 0
-67 -55 -34 0
-68 -56 -35 0
-69 -57 -36 0
-70 -58 -34 0
-71 -59 -35 0
-72 -60 -36 0
-73 -61 -34 0
-74 -62 -35 0
-75 -63 -36 0
-76 -64 -34 0
-77 -65 -35 0
-78 -66 -36 0
-79 -67 -34 0
-80 -68 -35 0
-81 -69 -36 0
-43 -16 -1 0
-44 -17 -2 0
-45 -18 -3 0
-43 -19 -4 0
-44 -20 -5 0
-45 -21 -6 0
-43 -22 -7 0
-44 -23 -8 0
-45 -24 -9 0
-43 -25 -10 0
-44 -26 -11 0
-45 -27 -12 0
-43 -28 -13 0
-44 -29 -14 0
-45 -30 -15 0
-43 -31 -16 0
-44 -32 -17 0
-45 -33 -18 0
-43 -34 -19 0
-44 -35 -20 0
-45 -36 -21 0
-43 -37 -22 0
-44 -38 -23 0
-45 -39 -24 0
-43 -40 -25 0
-44 -41 -26 0
-45 -42 -27 0
-43 -28 0
-44 -29 0
-45 -30 0
-46 -43 -31 0
-47 -44 -32 0
-48 -45 -33 0
-49 -43 -34 0
-50 -44 -35 0
-51 -45 -36 0
-52 -43 -37 0
-53 -44 -38 0
-54 -45 -39 0
-55 -43 -40 0
-56 -44 -41 0
-57 -45 -42 0
-58 -43 0
-59 -44 0
-60 -45 0
-61 -46 -43 0
-62 -47 -44 0
-63 -48 -45 0
-64 -49 -43 0
-65 -50 -44 0
-66 -51 -45 0
-67 -52 -43 0
-68 -53 -44 0
-69 -54 -45 0
-70 -55 -43 0
-71 -56 -44 0
-72 -57 -45 0
-73 -58 -43 0
-74 -59 -44 0
-75 -60 -45 0
-76 -61 -43 0
-77 -62 -44 0
-78 -63 -45 0
-79 -64 -43 0
-80 -65 -44 0
-81 -66 -45 0
-52 -19 -1 0
-53 -20 -2 0
-54 -21 -3 0
-52 -22 -4 0
-53 -23 -5 0
-54 -24 -6 0
-52 -25 -7 0
-53 -26 -8 0
-54 -27 -9 0
-52 -28 -10 0
-53 -29 -11 0
-54 -30 -12 0
-52 -31 -13 0
-53 -32 -14 0
-54 -33 -15 0
-52 -34 -16 0
-53 -35 -17 0
-54 -36 -18 0
-52 -37 -19 0
-53 -38 -20 0
-54 -39 -21 0
-52 -40 -22 0
-53 -41 -23 0
-54 -42 -24 0
-52 -43 -25 0
-53 -44 -26 0
-54 -45 -27 0
-52 -46 -28 0
-53 -47 -29 0
-54 -48 -30 0
-52 -49 -31 0
-53 -50 -32 0
-54 -51 -33 0
-52 -34 0
-53 -35 0
-54 -36 0
-55 -52 -37 0
-56 -53 -38 0
-57 -54 -39 0
-58 -52 -40 0
-59 -53 -41 0
-60 -54 -42 0
-61 -52 -43 0
-62 -53 -44 0
-63 -54 -45 0
-64 -52 -46 0
-65 -53 -47 0
-66 -54 -48 0
-67 -52 -49 0
-68 -53 -50 0
-69 -54 -51 0
-70 -52 0
-71 -53 0
-72 -54 0
-73 -55 -52 0
-74 -56 -53 0
-75 -57 -54 0
-76 -58 -52 0
-77 -59 -53 0
-78 -60 -54 0
-79 -61 -52 0
-80 -62 -53 0
-81 -63 -54 0
-61 -22 -1 0
-62 -23 -2 0
-63 -24 -3 0
-61 -25 -4 0
-62 -26 -5 0
-63 -27 -6 0
-61 -28 -7 0
-62 -29 -8 0
-63 -30 -9 0
-61 -31 -10 0
-62 -32 -11 0
-63 -33 -12 0
-61 -34 -13 0
-62 -35 -14 0
-63 -36 -15 0
-61 -37 -16 0
-62 -38 -17 0
-63 -39 -18 0
-61 -40 -19 0
-62 -41 -20 0
-63 -42 -21 0
-61 -43 -22 0
-62 -44 -23 0
-63 -45 -24 0
-61 -46 -25 0
-62 -47 -26 0
-63 -48 -27 0
-61 -49 -28 0
-62 -50 -29 0
-63 -51 -30 0
-61 -52 -31 0
-62 -53 -32 0
-63 -54 -33 0
-61 -55 -34 0
-62 -56 -35 0
-63 -57 -36 0
-61 -58 -37 0
-62 -59 -38 0
-63 -60 -39 0
-61 -40 0
-62 -41 0
-63 -42 0
-64 -61 -43 0
-65 -62 -44 0
-66 -63 -45 0
-67 -61 -46 0
-68 -62 -47 0
-69 -63 -48 0
-70 -61 -49 0
-71 -62 -50 0
-72 -63 -51 0
-73 -61 -52 0
-74 -62 -53 0
-75 -63 -54 0
-76 -61 -55 0
-77 -62 -56 0
-78 -63 -57 0
-79 -61 -58 0
-80 -62 -59 0
-81 -63 -60 0
-70 -25 -1 0
-71 -26 -2 0
-72 -27 -3 0
-70 -28 -4 0
-71 -29 -5 0
-72 -30 -6 0
-70 -31 -7 0
-71 -32 -8 0
-72 -33 -9 0
-70 -34 -10 0
-71 -35 -11 0
-72 -36 -12 0
-70 -37 -13 0
-71 -38 -14 0
-72 -39 -15 0
-70 -40 -16 0
-71 -41 -17 0
-72 -42 -18 0
-70 -43 -19 0
-71 -44 -20 0
-72 -45 -21 0
-70 -46 -22 0
-71 -47 -23 0
-72 -48 -24 0
-70 -49 -25 0
-71 -50 -26 0
-72 -51 -27 0
-70 -52 -28 0
-71 -53 -29 0
-72 -54 -30 0
-70 -55 -31 0
-71 -56 -32 0
-72 -57 -33 0
-70 -58 -34 0
-71 -59 -35 0
-72 -60 -36 0
-70 -61 -37 0
-71 -62 -38 0
-72 -63 -39 0
-70 -64 -40 0
-71 -65 -41 0
-72 -66 -42 0
-70 -67 -43 0
-71 -68 -44 0
-72 -69 -45 0
-70 -46 0
-71 -47 0
-72 -48 0
-73 -70 -49 0
-74 -71 -50 0
-75 -72 -51 0
-76 -70 -52 0
-77 -71 -53 0
-78 -72 -54 0
-79 -70 -55 0
-80 -71 -56 0
-81 -72 -57 0
-79 -28 -1 0
-80 -29 -2 0
-81 -30 -3 0
-79 -31 -4 0
-80 -32 -5 0
-81 -33 -6 0
-79 -34 -7 0
-80 -35 -8 0
-81 -36 -9 0
-79 -37 -10 0
-80 -38 -11 0
-81 -39 -12 0
-79 -40 -13 0
-80 -41 -14 0
-81 -42 -15 0
-79 -43 -16 0
-80 -44 -17 0
-81 -45 -18 0
-79 -46 -19 0
-80 -47 -20 0
-81 -48 -21 0
-79 -49 -22 0
-80 -50 -23 0
-81 -51 -24 0
-79 -52 -25 0
-80 -53 -26 0
-81 -54 -27 0
-79 -55 -28 0
-80 -56 -29 0
-81 -57 -30 0
-79 -58 -31 0
-80 -59 -32 0
-81 -60 -33 0
-79 -61 -34 0
-80 -62 -35 0
-81 -63 -36 0
-79 -64 -37 0
-80 -65 -38 0
-81 -66 -39 0
-79 -67 -40 0
-80 -68 -41 0
-81 -69 -42 0
-79 -70 -43 0
-80 -71 -44 0
-81 -72 -45 0
-79 -73 -46 0
-80 -74 -47 0
-81 -75 -48 0
-79 -76 -49 0
-80 -77 -50 0
-81 -78 -51 0
-79 -52 0
-80 -53 0
-81 -54 0
