p cnf 648 22194
1 2 3 0
-1 -2 0
-1 -3 0
-2 -3 0
4 5 6 0
-4 -5 0
-4 -6 0
-5 -6 0
7 8 9 0
-7 -8 0
-7 -9 0
-8 -9 0
10 11 12 0
-10 -11 0
-10 -12 0
-11 -12 0
13 14 15 0
-13 -14 0
-13 -15 0
-14 -15 0
16 17 18 0
-16 -17 0
-16 -18 0
-17 -18 0
19 20 21 0
-19 -20 0
-19 -21 0
-20 -21 0
22 23 24 0
-22 -23 0
-22 -24 0
-23 -24 0
25 26 27 0
-25 -26 0
-25 -27 0
-26 -27 0
28 29 30 0
-28 -29 0
-28 -30 0
-29 -30 0
31 32 33 0
-31 -32 0
-31 -33 0
-32 -33 0
34 35 36 0
-34 -35 0
-34 -36 0
-35 -36 0
37 38 39 0
-37 -38 0
-37 -39 0
-38 -39 0
40 41 42 0
-40 -41 0
-40 -42 0
-41 -42 0
43 44 45 0
-43 -44 0
-43 -45 0
-44 -45 0
46 47 48 0
-46 -47 0
-46 -48 0
-47 -48 0
49 50 51 0
-49 -50 0
-49 -51 0
-50 -51 0
52 53 54 0
-52 -53 0
-52 -54 0
-53 -54 0
55 56 57 0
-55 -56 0
-55 -57 0
-56 -57 0
58 59 60 0
-58 -59 0
-58 -60 0
-59 -60 0
61 62 63 0
-61 -62 0
-61 -63 0
-62 -63 0
64 65 66 0
-64 -65 0
-64 -66 0
-65 -66 0
67 68 69 0
-67 -68 0
-67 -69 0
-68 -69 0
70 71 72 0
-70 -71 0
-70 -72 0
-71 -72 0
73 74 75 0
-73 -74 0
-73 -75 0
-74 -75 0
76 77 78 0
-76 -77 0
-76 -78 0
-77 -78 0
79 80 81 0
-79 -80 0
-79 -81 0
-80 -81 0
82 83 84 0
-82 -83 0
-82 -84 0
-83 -84 0
85 86 87 0
-85 -86 0
-85 -87 0
-86 -87 0
88 89 90 0
-88 -89 0
-88 -90 0
-89 -90 0
91 92 93 0
-91 -92 0
-91 -93 0
-92 -93 0
94 95 96 0
-94 -95 0
-94 -96 0
-95 -96 0
97 98 99 0
-97 -98 0
-97 -99 0
-98 -99 0
100 101 102 0
-100 -101 0
-100 -102 0
-101 -102 0
103 104 105 0
-103 -104 0
-103 -105 0
-104 -105 0
106 107 108 0
-106 -107 0
-106 -108 0
-107 -108 0
109 110 111 0
-109 -110 0
-109 -111 0
-110 -111 0
112 113 114 0
-112 -113 0
-112 -114 0
-113 -114 0
115 116 117 0
-115 -116 0
-115 -117 0
-116 -117 0
118 119 120 0
-118 -119 0
-118 -120 0
-119 -120 0
121 122 123 0
-121 -122 0
-121 -123 0
-122 -123 0
124 125 126 0
-124 -125 0
-124 -126 0
-125 -126 0
127 128 129 0
-127 -128 0
-127 -129 0
-128 -129 0
130 131 132 0
-130 -131 0
-130 -132 0
-131 -132 0
133 134 135 0
-133 -134 0
-133 -135 0
-134 -135 0
136 137 138 0
-136 -137 0
-136 -138 0
-137 -138 0
139 140 141 0
-139 -140 0
-139 -141 0
-140 -141 0
142 143 144 0
-142 -143 0
-142 -144 0
-143 -144 0
145 146 147 0
-145 -146 0
-145 -147 0
-146 -147 0
148 149 150 0
-148 -149 0
-148 -150 0
-149 -150 0
151 152 153 0
-151 -152 0
-151 -153 0
-152 -153 0
154 155 156 0
-154 -155 0
-154 -156 0
-155 -156 0
157 158 159 0
-157 -158 0
-157 -159 0
-158 -159 0
160 161 162 0
-160 -161 0
-160 -162 0
-161 -162 0
163 164 165 0
-163 -164 0
-163 -165 0
-164 -165 0
166 167 168 0
-166 -167 0
-166 -168 0
-167 -168 0
169 170 171 0
-169 -170 0
-169 -171 0
-170 -171 0
172 173 174 0
-172 -173 0
-172 -174 0
-173 -174 0
175 176 177 0
-175 -176 0
-175 -177 0
-176 -177 0
178 179 180 0
-178 -179 0
-178 -180 0
-179 -180 0
181 182 183 0
-181 -182 0
-181 -183 0
-182 -183 0
184 185 186 0
-184 -185 0
-184 -186 0
-185 -186 0
187 188 189 0
-187 -188 0
-187 -189 0
-188 -189 0
190 191 192 0
-190 -191 0
-190 -192 0
-191 -192 0
193 194 195 0
-193 -194 0
-193 -195 0
-194 -195 0
196 197 198 0
-196 -197 0
-196 -198 0
-197 -198 0
199 200 201 0
-199 -200 0
-199 -201 0
-200 -201 0
202 203 204 0
-202 -203 0
-202 -204 0
-203 -204 0
205 206 207 0
-205 -206 0
-205 -207 0
-206 -207 0
208 209 210 0
-208 -209 0
-208 -210 0
-209 -210 0
211 212 213 0
-211 -212 0
-211 -213 0
-212 -213 0
214 215 216 0
-214 -215 0
-214 -216 0
-215 -216 0
217 218 219 0
-217 -218 0
-217 -219 0
-218 -219 0
220 221 222 0
-220 -221 0
-220 -222 0
-221 -222 0
223 224 225 0
-223 -224 0
-223 -225 0
-224 -225 0
226 227 228 0
-226 -227 0
-226 -228 0
-227 -228 0
229 230 231 0
-229 -230 0
-229 -231 0
-230 -231 0
232 233 234 0
-232 -233 0
-232 -234 0
-233 -234 0
235 236 237 0
-235 -236 0
-235 -237 0
-236 -237 0
238 239 240 0
-238 -239 0
-238 -240 0
-239 -240 0
241 242 243 0
-241 -242 0
-241 -243 0
-242 -243 0
244 245 246 0
-244 -245 0
-244 -246 0
-245 -246 0
247 248 249 0
-247 -248 0
-247 -249 0
-248 -249 0
250 251 252 0
-250 -251 0
-250 -252 0
-251 -252 0
253 254 255 0
-253 -254 0
-253 -255 0
-254 -255 0
256 257 258 0
-256 -257 0
-256 -258 0
-257 -258 0
259 260 261 0
-259 -260 0
-259 -261 0
-260 -261 0
262 263 264 0
-262 -263 0
-262 -264 0
-263 -264 0
265 266 267 0
-265 -266 0
-265 -267 0
-266 -267 0
268 269 270 0
-268 -269 0
-268 -270 0
-269 -270 0
271 272 273 0
-271 -272 0
-271 -273 0
-272 -273 0
274 275 276 0
-274 -275 0
-274 -276 0
-275 -276 0
277 278 279 0
-277 -278 0
-277 -279 0
-278 -279 0
280 281 282 0
-280 -281 0
-280 -282 0
-281 -282 0
283 284 285 0
-283 -284 0
-283 -285 0
-284 -285 0
286 287 288 0
-286 -287 0
-286 -288 0
-287 -288 0
289 290 291 0
-289 -290 0
-289 -291 0
-290 -291 0
292 293 294 0
-292 -293 0
-292 -294 0
-293 -294 0
295 296 297 0
-295 -296 0
-295 -297 0
-296 -297 0
298 299 300 0
-298 -299 0
-298 -300 0
-299 -300 0
301 302 303 0
-301 -302 0
-301 -303 0
-302 -303 0
304 305 306 0
-304 -305 0
-304 -306 0
-305 -306 0
307 308 309 0
-307 -308 0
-307 -309 0
-308 -309 0
310 311 312 0
-310 -311 0
-310 -312 0
-311 -312 0
313 314 315 0
-313 -314 0
-313 -315 0
-314 -315 0
316 317 318 0
-316 -317 0
-316 -318 0
-317 -318 0
319 320 321 0
-319 -320 0
-319 -321 0
-320 -321 0
322 323 324 0
-322 -323 0
-322 -324 0
-323 -324 0
325 326 327 0
-325 -326 0
-325 -327 0
-326 -327 0
328 329 330 0
-328 -329 0
-328 -330 0
-329 -330 0
331 332 333 0
-331 -332 0
-331 -333 0
-332 -333 0
334 335 336 0
-334 -335 0
-334 -336 0
-335 -336 0
337 338 339 0
-337 -338 0
-337 -339 0
-338 -339 0
340 341 342 0
-340 -341 0
-340 -342 0
-341 -342 0
343 344 345 0
-343 -344 0
-343 -345 0
-344 -345 0
346 347 348 0
-346 -347 0
-346 -348 0
-347 -348 0
349 350 351 0
-349 -350 0
-349 -351 0
-350 -351 0
352 353 354 0
-352 -353 0
-352 -354 0
-353 -354 0
355 356 357 0
-355 -356 0
-355 -357 0
-356 -357 0
358 359 360 0
-358 -359 0
-358 -360 0
-359 -360 0
361 362 363 0
-361 -362 0
-361 -363 0
-362 -363 0
364 365 366 0
-364 -365 0
-364 -366 0
-365 -366 0
367 368 369 0
-367 -368 0
-367 -369 0
-368 -369 0
370 371 372 0
-370 -371 0
-370 -372 0
-371 -372 0
373 374 375 0
-373 -374 0
-373 -375 0
-374 -375 0
376 377 378 0
-376 -377 0
-376 -378 0
-377 -378 0
379 380 381 0
-379 -380 0
-379 -381 0
-380 -381 0
382 383 384 0
-382 -383 0
-382 -384 0
-383 -384 0
385 386 387 0
-385 -386 0
-385 -387 0
-386 -387 0
388 389 390 0
-388 -389 0
-388 -390 0
-389 -390 0
391 392 393 0
-391 -392 0
-391 -393 0
-392 -393 0
394 395 396 0
-394 -395 0
-394 -396 0
-395 -396 0
397 398 399 0
-397 -398 0
-397 -399 0
-398 -399 0
400 401 402 0
-400 -401 0
-400 -402 0
-401 -402 0
403 404 405 0
-403 -404 0
-403 -405 0
-404 -405 0
406 407 408 0
-406 -407 0
-406 -408 0
-407 -408 0
409 410 411 0
-409 -410 0
-409 -411 0
-410 -411 0
412 413 414 0
-412 -413 0
-412 -414 0
-413 -414 0
415 416 417 0
-415 -416 0
-415 -417 0
-416 -417 0
418 419 420 0
-418 -419 0
-418 -420 0
-419 -420 0
421 422 423 0
-421 -422 0
-421 -423 0
-422 -423 0
424 425 426 0
-424 -425 0
-424 -426 0
-425 -426 0
427 428 429 0
-427 -428 0
-427 -429 0
-428 -429 0
430 431 432 0
-430 -431 0
-430 -432 0
-431 -432 0
433 434 435 0
-433 -434 0
-433 -435 0
-434 -435 0
436 437 438 0
-436 -437 0
-436 -438 0
-437 -438 0
439 440 441 0
-439 -440 0
-439 -441 0
-440 -441 0
442 443 444 0
-442 -443 0
-442 -444 0
-443 -444 0
445 446 447 0
-445 -446 0
-445 -447 0
-446 -447 0
448 449 450 0
-448 -449 0
-448 -450 0
-449 -450 0
451 452 453 0
-451 -452 0
-451 -453 0
-452 -453 0
454 455 456 0
-454 -455 0
-454 -456 0
-455 -456 0
457 458 459 0
-457 -458 0
-457 -459 0
-458 -459 0
460 461 462 0
-460 -461 0
-460 -462 0
-461 -462 0
463 464 465 0
-463 -464 0
-463 -465 0
-464 -465 0
466 467 468 0
-466 -467 0
-466 -468 0
-467 -468 0
469 470 471 0
-469 -470 0
-469 -471 0
-470 -471 0
472 473 474 0
-472 -473 0
-472 -474 0
-473 -474 0
475 476 477 0
-475 -476 0
-475 -477 0
-476 -477 0
478 479 480 0
-478 -479 0
-478 -480 0
-479 -480 0
481 482 483 0
-481 -482 0
-481 -483 0
-482 -483 0
484 485 486 0
-484 -485 0
-484 -486 0
-485 -486 0
487 488 489 0
-487 -488 0
-487 -489 0
-488 -489 0
490 491 492 0
-490 -491 0
-490 -492 0
-491 -492 0
493 494 495 0
-493 -494 0
-493 -495 0
-494 -495 0
496 497 498 0
-496 -497 0
-496 -498 0
-497 -498 0
499 500 501 0
-499 -500 0
-499 -501 0
-500 -501 0
502 503 504 0
-502 -503 0
-502 -504 0
-503 -504 0
505 506 507 0
-505 -506 0
-505 -507 0
-506 -507 0
508 509 510 0
-508 -509 0
-508 -510 0
-509 -510 0
511 512 513 0
-511 -512 0
-511 -513 0
-512 -513 0
514 515 516 0
-514 -515 0
-514 -516 0
-515 -516 0
517 518 519 0
-517 -518 0
-517 -519 0
-518 -519 0
520 521 522 0
-520 -521 0
-520 -522 0
-521 -522 0
523 524 525 0
-523 -524 0
-523 -525 0
-524 -525 0
526 527 528 0
-526 -527 0
-526 -528 0
-527 -528 0
529 530 531 0
-529 -530 0
-529 -531 0
-530 -531 0
532 533 534 0
-532 -533 0
-532 -534 0
-533 -534 0
535 536 537 0
-535 -536 0
-535 -537 0
-536 -537 0
538 539 540 0
-538 -539 0
-538 -540 0
-539 -540 0
541 542 543 0
-541 -542 0
-541 -543 0
-542 -543 0
544 545 546 0
-544 -545 0
-544 -546 0
-545 -546 0
547 548 549 0
-547 -548 0
-547 -549 0
-548 -549 0
550 551 552 0
-550 -551 0
-550 -552 0
-551 -552 0
553 554 555 0
-553 -554 0
-553 -555 0
-554 -555 0
556 557 558 0
-556 -557 0
-556 -558 0
-557 -558 0
559 560 561 0
-559 -560 0
-559 -561 0
-560 -561 0
562 563 564 0
-562 -563 0
-562 -564 0
-563 -564 0
565 566 567 0
-565 -566 0
-565 -567 0
-566 -567 0
568 569 570 0
-568 -569 0
-568 -570 0
-569 -570 0
571 572 573 0
-571 -572 0
-571 -573 0
-572 -573 0
574 575 576 0
-574 -575 0
-574 -576 0
-575 -576 0
577 578 579 0
-577 -578 0
-577 -579 0
-578 -579 0
580 581 582 0
-580 -581 0
-580 -582 0
-581 -582 0
583 584 585 0
-583 -584 0
-583 -585 0
-584 -585 0
586 587 588 0
-586 -587 0
-586 -588 0
-587 -588 0
589 590 591 0
-589 -590 0
-589 -591 0
-590 -591 0
592 593 594 0
-592 -593 0
-592 -594 0
-593 -594 0
595 596 597 0
-595 -596 0
-595 -597 0
-596 -597 0
598 599 600 0
-598 -599 0
-598 -600 0
-599 -600 0
601 602 603 0
-601 -602 0
-601 -603 0
-602 -603 0
604 605 606 0
-604 -605 0
-604 -606 0
-605 -606 0
607 608 609 0
-607 -608 0
-607 -609 0
-608 -609 0
610 611 612 0
-610 -611 0
-610 -612 0
-611 -612 0
613 614 615 0
-613 -614 0
-613 -615 0
-614 -615 0
616 617 618 0
-616 -617 0
-616 -618 0
-617 -618 0
619 620 621 0
-619 -620 0
-619 -621 0
-620 -621 0
622 623 624 0
-622 -623 0
-622 -624 0
-623 -624 0
625 626 627 0
-625 -626 0
-625 -627 0
-626 -627 0
628 629 630 0
-628 -629 0
-628 -630 0
-629 -630 0
631 632 633 0
-631 -632 0
-631 -633 0
-632 -633 0
634 635 636 0
-634 -635 0
-634 -636 0
-635 -636 0
637 638 639 0
-637 -638 0
-637 -639 0
-638 -639 0
640 641 642 0
-640 -641 0
-640 -642 0
-641 -642 0
643 644 645 0
-643 -644 0
-643 -645 0
-644 -645 0
646 647 648 0
-646 -647 0
-646 -648 0
-647 -648 0
-16 -4 -1 0
-17 -5 -2 0
-18 -6 -3 0
-16 -7 -4 0
-17 -8 -5 0
-18 -9 -6 0
-16 -10 -7 0
-17 -11 -8 0
-18 -12 -9 0
-16 -13 -10 0
-17 -14 -11 0
-18 -15 -12 0
-16 -13 0
-17 -14 0
-18 -15 0
-19 -16 0
-20 -17 0
-21 -18 0
-22 -19 -16 0
-23 -20 -17 0
-24 -21 -18 0
-25 -22 -16 0
-26 -23 -17 0
-27 -24 -18 0
-28 -25 -16 0
-29 -26 -17 0
-30 -27 -18 0
-31 -28 -16 0
-32 -29 -17 0
-33 -30 -18 0
-34 -31 -16 0
-35 -32 -17 0
-36 -33 -18 0
-37 -34 -16 0
-38 -35 -17 0
-39 -36 -18 0
-40 -37 -16 0
-41 -38 -17 0
-42 -39 -18 0
-43 -40 -16 0
-44 -41 -17 0
-45 -42 -18 0
-46 -43 -16 0
-47 -44 -17 0
-48 -45 -18 0
-49 -46 -16 0
-50 -47 -17 0
-51 -48 -18 0
-52 -49 -16 0
-53 -50 -17 0
-54 -51 -18 0
-55 -52 -16 0
-56 -53 -17 0
-57 -54 -18 0
-58 -55 -16 0
-59 -56 -17 0
-60 -57 -18 0
-61 -58 -16 0
-62 -59 -17 0
-63 -60 -18 0
-64 -61 -16 0
-65 -62 -17 0
-66 -63 -18 0
-67 -64 -16 0
-68 -65 -17 0
-69 -66 -18 0
-70 -67 -16 0
-71 -68 -17 0
-72 -69 -18 0
-73 -70 -16 0
-74 -71 -17 0
-75 -72 -18 0
-76 -73 -16 0
-77 -74 -17 0
-78 -75 -18 0
-79 -76 -16 0
-80 -77 -17 0
-81 -78 -18 0
-82 -79 -16 0
-83 -80 -17 0
-84 -81 -18 0
-85 -82 -16 0
-86 -83 -17 0
-87 -84 -18 0
-88 -85 -16 0
-89 -86 -17 0
-90 -87 -18 0
-91 -88 -16 0
-92 -89 -17 0
-93 -90 -18 0
-94 -91 -16 0
-95 -92 -17 0
-96 -93 -18 0
-97 -94 -16 0
-98 -95 -17 0
-99 -96 -18 0
-100 -97 -16 0
-101 -98 -17 0
-102 -99 -18 0
-103 -100 -16 0
-104 -101 -17 0
-105 -102 -18 0
-106 -103 -16 0
-107 -104 -17 0
-108 -105 -18 0
-109 -106 -16 0
-110 -107 -17 0
-111 -108 -18 0
-112 -109 -16 0
-113 -110 -17 0
-114 -111 -18 0
-115 -112 -16 0
-116 -113 -17 0
-117 -114 -18 0
-118 -115 -16 0
-119 -116 -17 0
-120 -117 -18 0
-121 -118 -16 0
-122 -119 -17 0
-123 -120 -18 0
-124 -121 -16 0
-125 -122 -17 0
-126 -123 -18 0
-127 -124 -16 0
-128 -125 -17 0
-129 -126 -18 0
-130 -127 -16 0
-131 -128 -17 0
-132 -129 -18 0
-133 -130 -16 0
-134 -131 -17 0
-135 -132 -18 0
-136 -133 -16 0
-137 -134 -17 0
-138 -135 -18 0
-139 -136 -16 0
-140 -137 -17 0
-141 -138 -18 0
-142 -139 -16 0
-143 -140 -17 0
-144 -141 -18 0
-145 -142 -16 0
-146 -143 -17 0
-147 -144 -18 0
-148 -145 -16 0
-149 -146 -17 0
-150 -147 -18 0
-151 -148 -16 0
-152 -149 -17 0
-153 -150 -18 0
-154 -151 -16 0
-155 -152 -17 0
-156 -153 -18 0
-157 -154 -16 0
-158 -155 -17 0
-159 -156 -18 0
-160 -157 -16 0
-161 -158 -17 0
-162 -159 -18 0
-163 -160 -16 0
-164 -161 -17 0
-165 -162 -18 0
-166 -163 -16 0
-167 -164 -17 0
-168 -165 -18 0
-169 -166 -16 0
-170 -167 -17 0
-171 -168 -18 0
-172 -169 -16 0
-173 -170 -17 0
-174 -171 -18 0
-175 -172 -16 0
-176 -173 -17 0
-177 -174 -18 0
-178 -175 -16 0
-179 -176 -17 0
-180 -177 -18 0
-181 -178 -16 0
-182 -179 -17 0
-183 -180 -18 0
-184 -181 -16 0
-185 -182 -17 0
-186 -183 -18 0
-187 -184 -16 0
-188 -185 -17 0
-189 -186 -18 0
-190 -187 -16 0
-191 -188 -17 0
-192 -189 -18 0
-193 -190 -16 0
-194 -191 -17 0
-195 -192 -18 0
-196 -193 -16 0
-197 -194 -17 0
-198 -195 -18 0
-199 -196 -16 0
-200 -197 -17 0
-201 -198 -18 0
-202 -199 -16 0
-203 -200 -17 0
-204 -201 -18 0
-205 -202 -16 0
-206 -203 -17 0
-207 -204 -18 0
-208 -205 -16 0
-209 -206 -17 0
-210 -207 -18 0
-211 -208 -16 0
-212 -209 -17 0
-213 -210 -18 0
-214 -211 -16 0
-215 -212 -17 0
-216 -213 -18 0
-217 -214 -16 0
-218 -215 -17 0
-219 -216 -18 0
-220 -217 -16 0
-221 -218 -17 0
-222 -219 -18 0
-223 -220 -16 0
-224 -221 -17 0
-225 -222 -18 0
-226 -223 -16 0
-227 -224 -17 0
-228 -225 -18 0
-229 -226 -16 0
-230 -227 -17 0
-231 -228 -18 0
-232 -229 -16 0
-233 -230 -17 0
-234 -231 -18 0
-235 -232 -16 0
-236 -233 -17 0
-237 -234 -18 0
-238 -235 -16 0
-239 -236 -17 0
-240 -237 -18 0
-241 -238 -16 0
-242 -239 -17 0
-243 -240 -18 0
-244 -241 -16 0
-245 -242 -17 0
-246 -243 -18 0
-247 -244 -16 0
-248 -245 -17 0
-249 -246 -18 0
-250 -247 -16 0
-251 -248 -17 0
-252 -249 -18 0
-253 -250 -16 0
-254 -251 -17 0
-255 -252 -18 0
-256 -253 -16 0
-257 -254 -17 0
-258 -255 -18 0
-259 -256 -16 0
-260 -257 -17 0
-261 -258 -18 0
-262 -259 -16 0
-263 -260 -17 0
-264 -261 -18 0
-265 -262 -16 0
-266 -263 -17 0
-267 -264 -18 0
-268 -265 -16 0
-269 -266 -17 0
-270 -267 -18 0
-271 -268 -16 0
-272 -269 -17 0
-273 -270 -18 0
-274 -271 -16 0
-275 -272 -17 0
-276 -273 -18 0
-277 -274 -16 0
-278 -275 -17 0
-279 -276 -18 0
-280 -277 -16 0
-281 -278 -17 0
-282 -279 -18 0
-283 -280 -16 0
-284 -281 -17 0
-285 -282 -18 0
-286 -283 -16 0
-287 -284 -17 0
-288 -285 -18 0
-289 -286 -16 0
-290 -287 -17 0
-291 -288 -18 0
-292 -289 -16 0
-293 -290 -17 0
-294 -291 -18 0
-295 -292 -16 0
-296 -293 -17 0
-297 -294 -18 0
-298 -295 -16 0
-299 -296 -17 0
-300 -297 -18 0
-301 -298 -16 0
-302 -299 -17 0
-303 -300 -18 0
-304 -301 -16 0
-305 -302 -17 0
-306 -303 -18 0
-307 -304 -16 0
-308 -305 -17 0
-309 -306 -18 0
-310 -307 -16 0
-311 -308 -17 0
-312 -309 -18 0
-313 -310 -16 0
-314 -311 -17 0
-315 -312 -18 0
-316 -313 -16 0
-317 -314 -17 0
-318 -315 -18 0
-319 -316 -16 0
-320 -317 -17 0
-321 -318 -18 0
-322 -319 -16 0
-323 -320 -17 0
-324 -321 -18 0
-325 -322 -16 0
-326 -323 -17 0
-327 -324 -18 0
-328 -325 -16 0
-329 -326 -17 0
-330 -327 -18 0
-331 -328 -16 0
-332 -329 -17 0
-333 -330 -18 0
-334 -331 -16 0
-335 -332 -17 0
-336 -333 -18 0
-337 -334 -16 0
-338 -335 -17 0
-339 -336 -18 0
-340 -337 -16 0
-341 -338 -17 0
-342 -339 -18 0
-343 -340 -16 0
-344 -341 -17 0
-345 -342 -18 0
-346 -343 -16 0
-347 -344 -17 0
-348 -345 -18 0
-349 -346 -16 0
-350 -347 -17 0
-351 -348 -18 0
-352 -349 -16 0
-353 -350 -17 0
-354 -351 -18 0
-355 -352 -16 0
-356 -353 -17 0
-357 -354 -18 0
-358 -355 -16 0
-359 -356 -17 0
-360 -357 -18 0
-361 -358 -16 0
-362 -359 -17 0
-363 -360 -18 0
-364 -361 -16 0
-365 -362 -17 0
-366 -363 -18 0
-367 -364 -16 0
-368 -365 -17 0
-369 -366 -18 0
-370 -367 -16 0
-371 -368 -17 0
-372 -369 -18 0
-373 -370 -16 0
-374 -371 -17 0
-375 -372 -18 0
-376 -373 -16 0
-377 -374 -17 0
-378 -375 -18 0
-379 -376 -16 0
-380 -377 -17 0
-381 -378 -18 0
-382 -379 -16 0
-383 -380 -17 0
-384 -381 -18 0
-385 -382 -16 0
-386 -383 -17 0
-387 -384 -18 0
-388 -385 -16 0
-389 -386 -17 0
-390 -387 -18 0
-391 -388 -16 0
-392 -389 -17 0
-393 -390 -18 0
-394 -391 -16 0
-395 -392 -17 0
-396 -393 -18 0
-397 -394 -16 0
-398 -395 -17 0
-399 -396 -18 0
-400 -397 -16 0
-401 -398 -17 0
-402 -399 -18 0
-403 -400 -16 0
-404 -401 -17 0
-405 -402 -18 0
-406 -403 -16 0
-407 -404 -17 0
-408 -405 -18 0
-409 -406 -16 0
-410 -407 -17 0
-411 -408 -18 0
-412 -409 -16 0
-413 -410 -17 0
-414 -411 -18 0
-415 -412 -16 0
-416 -413 -17 0
-417 -414 -18 0
-418 -415 -16 0
-419 -416 -17 0
-420 -417 -18 0
-421 -418 -16 0
-422 -419 -17 0
-423 -420 -18 0
-424 -421 -16 0
-425 -422 -17 0
-426 -423 -18 0
-427 -424 -16 0
-428 -425 -17 0
-429 -426 -18 0
-430 -427 -16 0
-431 -428 -17 0
-432 -429 -18 0
-433 -430 -16 0
-434 -431 -17 0
-435 -432 -18 0
-436 -433 -16 0
-437 -434 -17 0
-438 -435 -18 0
-439 -436 -16 0
-440 -437 -17 0
-441 -438 -18 0
-442 -439 -16 0
-443 -440 -17 0
-444 -441 -18 0
-445 -442 -16 0
-446 -443 -17 0
-447 -444 -18 0
-448 -445 -16 0
-449 -446 -17 0
-450 -447 -18 0
-451 -448 -16 0
-452 -449 -17 0
-453 -450 -18 0
-454 -451 -16 0
-455 -452 -17 0
-456 -453 -18 0
-457 -454 -16 0
-458 -455 -17 0
-459 -456 -18 0
-460 -457 -16 0
-461 -458 -17 0
-462 -459 -18 0
-463 -460 -16 0
-464 -461 -17 0
-465 -462 -18 0
-466 -463 -16 0
-467 -464 -17 0
-468 -465 -18 0
-469 -466 -16 0
-470 -467 -17 0
-471 -468 -18 0
-472 -469 -16 0
-473 -470 -17 0
-474 -471 -18 0
-475 -472 -16 0
-476 -473 -17 0
-477 -474 -18 0
-478 -475 -16 0
-479 -476 -17 0
-480 -477 -18 0
-481 -478 -16 0
-482 -479 -17 0
-483 -480 -18 0
-484 -481 -16 0
-485 -482 -17 0
-486 -483 -18 0
-487 -484 -16 0
-488 -485 -17 0
-489 -486 -18 0
-490 -487 -16 0
-491 -488 -17 0
-492 -489 -18 0
-493 -490 -16 0
-494 -491 -17 0
-495 -492 -18 0
-496 -493 -16 0
-497 -494 -17 0
-498 -495 -18 0
-499 -496 -16 0
-500 -497 -17 0
-501 -498 -18 0
-502 -499 -16 0
-503 -500 -17 0
-504 -501 -18 0
-505 -502 -16 0
-506 -503 -17 0
-507 -504 -18 0
-508 -505 -16 0
-509 -506 -17 0
-510 -507 -18 0
-511 -508 -16 0
-512 -509 -17 0
-513 -510 -18 0
-514 -511 -16 0
-515 -512 -17 0
-516 -513 -18 0
-517 -514 -16 0
-518 -515 -17 0
-519 -516 -18 0
-520 -517 -16 0
-521 -518 -17 0
-522 -519 -18 0
-523 -520 -16 0
-524 -521 -17 0
-525 -522 -18 0
-526 -523 -16 0
-527 -524 -17 0
-528 -525 -18 0
-529 -526 -16 0
-530 -527 -17 0
-531 -528 -18 0
-532 -529 -16 0
-533 -530 -17 0
-534 -531 -18 0
-535 -532 -16 0
-536 -533 -17 0
-537 -534 -18 0
-538 -535 -16 0
-539 -536 -17 0
-540 -537 -18 0
-541 -538 -16 0
-542 -539 -17 0
-543 -540 -18 0
-544 -541 -16 0
-545 -542 -17 0
-546 -543 -18 0
-547 -544 -16 0
-548 -545 -17 0
-549 -546 -18 0
-550 -547 -16 0
-551 -548 -17 0
-552 -549 -18 0
-553 -550 -16 0
-554 -551 -17 0
-555 -552 -18 0
-556 -553 -16 0
-557 -554 -17 0
-558 -555 -18 0
-559 -556 -16 0
-560 -557 -17 0
-561 -558 -18 0
-562 -559 -16 0
-563 -560 -17 0
-564 -561 -18 0
-565 -562 -16 0
-566 -563 -17 0
-567 -564 -18 0
-568 -565 -16 0
-569 -566 -17 0
-570 -567 -18 0
-571 -568 -16 0
-572 -569 -17 0
-573 -570 -18 0
-574 -571 -16 0
-575 -572 -17 0
-576 -573 -18 0
-577 -574 -16 0
-578 -575 -17 0
-579 -576 -18 0
-580 -577 -16 0
-581 -578 -17 0
-582 -579 -18 0
-583 -580 -16 0
-584 -581 -17 0
-585 -582 -18 0
-586 -583 -16 0
-587 -584 -17 0
-588 -585 -18 0
-589 -586 -16 0
-590 -587 -17 0
-591 -588 -18 0
-592 -589 -16 0
-593 -590 -17 0
-594 -591 -18 0
-595 -592 -16 0
-596 -593 -17 0
-597 -594 -18 0
-598 -595 -16 0
-599 -596 -17 0
-600 -597 -18 0
-601 -598 -16 0
-602 -599 -17 0
-603 -600 -18 0
-604 -601 -16 0
-605 -602 -17 0
-606 -603 -18 0
-607 -604 -16 0
-608 -605 -17 0
-609 -606 -18 0
-610 -607 -16 0
-611 -608 -17 0
-612 -609 -18 0
-613 -610 -16 0
-614 -611 -17 0
-615 -612 -18 0
-616 -613 -16 0
-617 -614 -17 0
-618 -615 -18 0
-619 -616 -16 0
-620 -617 -17 0
-621 -618 -18 0
-622 -619 -16 0
-623 -620 -17 0
-624 -621 -18 0
-625 -622 -16 0
-626 -623 -17 0
-627 -624 -18 0
-628 -625 -16 0
-629 -626 -17 0
-630 -627 -18 0
-631 -628 -16 0
-632 -629 -17 0
-633 -630 -18 0
-634 -631 -16 0
-635 -632 -17 0
-636 -633 -18 0
-637 -634 -16 0
-638 -635 -17 0
-639 -636 -18 0
-640 -637 -16 0
-641 -638 -17 0
-642 -639 -18 0
-643 -640 -16 0
-644 -641 -17 0
-645 -642 -18 0
-646 -643 -16 0
-647 -644 -17 0
-648 -645 -18 0
-34 -7 -1 0
-35 -8 -2 0
-36 -9 -3 0
-34 -10 -4 0
-35 -11 -5 0
-36 -12 -6 0
-34 -13 -7 0
-35 -14 -8 0
-36 -15 -9 0
-34 -16 -10 0
-35 -17 -11 0
-36 -18 -12 0
-34 -19 -13 0
-35 -20 -14 0
-36 -21 -15 0
-34 -22 -16 0
-35 -23 -17 0
-36 -24 -18 0
-34 -25 -19 0
-35 -26 -20 0
-36 -27 -21 0
-34 -28 -22 0
-35 -29 -23 0
-36 -30 -24 0
-34 -31 -25 0
-35 -32 -26 0
-36 -33 -27 0
-34 -28 0
-35 -29 0
-36 -30 0
-37 -34 -31 0
-38 -35 -32 0
-39 -36 -33 0
-40 -34 0
-41 -35 0
-42 -36 0
-43 -37 -34 0
-44 -38 -35 0
-45 -39 -36 0
-46 -40 -34 0
-47 -41 -35 0
-48 -42 -36 0
-49 -43 -34 0
-50 -44 -35 0
-51 -45 -36 0
-52 -46 -34 0
-53 -47 -35 0
-54 -48 -36 0
-55 -49 -34 0
-56 -50 -35 0
-57 -51 -36 0
-58 -52 -34 0
-59 -53 -35 0
-60 -54 -36 0
-61 -55 -34 0
-62 -56 -35 0
-63 -57 -36 0
-64 -58 -34 0
-65 -59 -35 0
-66 -60 -36 0
-67 -61 -34 0
-68 -62 -35 0
-69 -63 -36 0
-70 -64 -34 0
-71 -65 -35 0
-72 -66 -36 0
-73 -67 -34 0
-74 -68 -35 0
-75 -69 -36 0
-76 -70 -34 0
-77 -71 -35 0
-78 -72 -36 0
-79 -73 -34 0
-80 -74 -35 0
-81 -75 -36 0
-82 -76 -34 0
-83 -77 -35 0
-84 -78 -36 0
-85 -79 -34 0
-86 -80 -35 0
-87 -81 -36 0
-88 -82 -34 0
-89 -83 -35 0
-90 -84 -36 0
-91 -85 -34 0
-92 -86 -35 0
-93 -87 -36 0
-94 -88 -34 0
-95 -89 -35 0
-96 -90 -36 0
-97 -91 -34 0
-98 -92 -35 0
-99 -93 -36 0
-100 -94 -34 0
-101 -95 -35 0
-102 -96 -36 0
-103 -97 -34 0
-104 -98 -35 0
-105 -99 -36 0
-106 -100 -34 0
-107 -101 -35 0
-108 -102 -36 0
-109 -103 -34 0
-110 -104 -35 0
-111 -105 -36 0
-112 -106 -34 0
-113 -107 -35 0
-114 -108 -36 0
-115 -109 -34 0
-116 -110 -35 0
-117 -111 -36 0
-118 -112 -34 0
-119 -113 -35 0
-120 -114 -36 0
-121 -115 -34 0
-122 -116 -35 0
-123 -117 -36 0
-124 -118 -34 0
-125 -119 -35 0
-126 -120 -36 0
-127 -121 -34 0
-128 -122 -35 0
-129 -123 -36 0
-130 -124 -34 0
-131 -125 -35 0
-132 -126 -36 0
-133 -127 -34 0
-134 -128 -35 0
-135 -129 -36 0
-136 -130 -34 0
-137 -131 -35 0
-138 -132 -36 0
-139 -133 -34 0
-140 -134 -35 0
-141 -135 -36 0
-142 -136 -34 0
-143 -137 -35 0
-144 -138 -36 0
-145 -139 -34 0
-146 -140 -35 0
-147 -141 -36 0
-148 -142 -34 0
-149 -143 -35 0
-150 -144 -36 0
-151 -145 -34 0
-152 -146 -35 0
-153 -147 -36 0
-154 -148 -34 0
-155 -149 -35 0
-156 -150 -36 0
-157 -151 -34 0
-158 -152 -35 0
-159 -153 -36 0
-160 -154 -34 0
-161 -155 -35 0
-162 -156 -36 0
-163 -157 -34 0
-164 -158 -35 0
-165 -159 -36 0
-166 -160 -34 0
-167 -161 -35 0
-168 -162 -36 0
-169 -163 -34 0
-170 -164 -35 0
-171 -165 -36 0
-172 -166 -34 0
-173 -167 -35 0
-174 -168 -36 0
-175 -169 -34 0
-176 -170 -35 0
-177 -171 -36 0
-178 -172 -34 0
-179 -173 -35 0
-180 -174 -36 0
-181 -175 -34 0
-182 -176 -35 0
-183 -177 -36 0
-184 -178 -34 0
-185 -179 -35 0
-186 -180 -36 0
-187 -181 -34 0
-188 -182 -35 0
-189 -183 -36 0
-190 -184 -34 0
-191 -185 -35 0
-192 -186 -36 0
-193 -187 -34 0
-194 -188 -35 0
-195 -189 -36 0
-196 -190 -34 0
-197 -191 -35 0
-198 -192 -36 0
-199 -193 -34 0
-200 -194 -35 0
-201 -195 -36 0
-202 -196 -34 0
-203 -197 -35 0
-204 -198 -36 0
-205 -199 -34 0
-206 -200 -35 0
-207 -201 -36 0
-208 -202 -34 0
-209 -203 -35 0
-210 -204 -36 0
-211 -205 -34 0
-212 -206 -35 0
-213 -207 -36 0
-214 -208 -34 0
-215 -209 -35 0
-216 -210 -36 0
-217 -211 -34 0
-218 -212 -35 0
-219 -213 -36 0
-220 -214 -34 0
-221 -215 -35 0
-222 -216 -36 0
-223 -217 -34 0
-224 -218 -35 0
-225 -219 -36 0
-226 -220 -34 0
-227 -221 -35 0
-228 -222 -36 0
-229 -223 -34 0
-230 -224 -35 0
-231 -225 -36 0
-232 -226 -34 0
-233 -227 -35 0
-234 -228 -36 0
-235 -229 -34 0
-236 -230 -35 0
-237 -231 -36 0
-238 -232 -34 0
-239 -233 -35 0
-240 -234 -36 0
-241 -235 -34 0
-242 -236 -35 0
-243 -237 -36 0
-244 -238 -34 0
-245 -239 -35 0
-246 -240 -36 0
-247 -241 -34 0
-248 -242 -35 0
-249 -243 -36 0
-250 -244 -34 0
-251 -245 -35 0
-252 -246 -36 0
-253 -247 -34 0
-254 -248 -35 0
-255 -249 -36 0
-256 -250 -34 0
-257 -251 -35 0
-258 -252 -36 0
-259 -253 -34 0
-260 -254 -35 0
-261 -255 -36 0
-262 -256 -34 0
-263 -257 -35 0
-264 -258 -36 0
-265 -259 -34 0
-266 -260 -35 0
-267 -261 -36 0
-268 -262 -34 0
-269 -263 -35 0
-270 -264 -36 0
-271 -265 -34 0
-272 -266 -35 0
-273 -267 -36 0
-274 -268 -34 0
-275 -269 -35 0
-276 -270 -36 0
-277 -271 -34 0
-278 -272 -35 0
-279 -273 -36 0
-280 -274 -34 0
-281 -275 -35 0
-282 -276 -36 0
-283 -277 -34 0
-284 -278 -35 0
-285 -279 -36 0
-286 -280 -34 0
-287 -281 -35 0
-288 -282 -36 0
-289 -283 -34 0
-290 -284 -35 0
-291 -285 -36 0
-292 -286 -34 0
-293 -287 -35 0
-294 -288 -36 0
-295 -289 -34 0
-296 -290 -35 0
-297 -291 -36 0
-298 -292 -34 0
-299 -293 -35 0
-300 -294 -36 0
-301 -295 -34 0
-302 -296 -35 0
-303 -297 -36 0
-304 -298 -34 0
-305 -299 -35 0
-306 -300 -36 0
-307 -301 -34 0
-308 -302 -35 0
-309 -303 -36 0
-310 -304 -34 0
-311 -305 -35 0
-312 -306 -36 0
-313 -307 -34 0
-314 -308 -35 0
-315 -309 -36 0
-316 -310 -34 0
-317 -311 -35 0
-318 -312 -36 0
-319 -313 -34 0
-320 -314 -35 0
-321 -315 -36 0
-322 -316 -34 0
-323 -317 -35 0
-324 -318 -36 0
-325 -319 -34 0
-326 -320 -35 0
-327 -321 -36 0
-328 -322 -34 0
-329 -323 -35 0
-330 -324 -36 0
-331 -325 -34 0
-332 -326 -35 0
-333 -327 -36 0
-334 -328 -34 0
-335 -329 -35 0
-336 -330 -36 0
-337 -331 -34 0
-338 -332 -35 0
-339 -333 -36 0
-340 -334 -34 0
-341 -335 -35 0
-342 -336 -36 0
-343 -337 -34 0
-344 -338 -35 0
-345 -339 -36 0
-346 -340 -34 0
-347 -341 -35 0
-348 -342 -36 0
-349 -343 -34 0
-350 -344 -35 0
-351 -345 -36 0
-352 -346 -34 0
-353 -347 -35 0
-354 -348 -36 0
-355 -349 -34 0
-356 -350 -35 0
-357 -351 -36 0
-358 -352 -34 0
-359 -353 -35 0
-360 -354 -36 0
-361 -355 -34 0
-362 -356 -35 0
-363 -357 -36 0
-364 -358 -34 0
-365 -359 -35 0
-366 -360 -36 0
-367 -361 -34 0
-368 -362 -35 0
-369 -363 -36 0
-370 -364 -34 0
-371 -365 -35 0
-372 -366 -36 0
-373 -367 -34 0
-374 -368 -35 0
-375 -369 -36 0
-376 -370 -34 0
-377 -371 -35 0
-378 -372 -36 0
-379 -373 -34 0
-380 -374 -35 0
-381 -375 -36 0
-382 -376 -34 0
-383 -377 -35 0
-384 -378 -36 0
-385 -379 -34 0
-386 -380 -35 0
-387 -381 -36 0
-388 -382 -34 0
-389 -383 -35 0
-390 -384 -36 0
-391 -385 -34 0
-392 -386 -35 0
-393 -387 -36 0
-394 -388 -34 0
-395 -389 -35 0
-396 -390 -36 0
-397 -391 -34 0
-398 -392 -35 0
-399 -393 -36 0
-400 -394 -34 0
-401 -395 -35 0
-402 -396 -36 0
-403 -397 -34 0
-404 -398 -35 0
-405 -399 -36 0
-406 -400 -34 0
-407 -401 -35 0
-408 -402 -36 0
-409 -403 -34 0
-410 -404 -35 0
-411 -405 -36 0
-412 -406 -34 0
-413 -407 -35 0
-414 -408 -36 0
-415 -409 -34 0
-416 -410 -35 0
-417 -411 -36 0
-418 -412 -34 0
-419 -413 -35 0
-420 -414 -36 0
-421 -415 -34 0
-422 -416 -35 0
-423 -417 -36 0
-424 -418 -34 0
-425 -419 -35 0
-426 -420 -36 0
-427 -421 -34 0
-428 -422 -35 0
-429 -423 -36 0
-430 -424 -34 0
-431 -425 -35 0
-432 -426 -36 0
-433 -427 -34 0
-434 -428 -35 0
-435 -429 -36 0
-436 -430 -34 0
-437 -431 -35 0
-438 -432 -36 0
-439 -433 -34 0
-440 -434 -35 0
-441 -435 -36 0
-442 -436 -34 0
-443 -437 -35 0
-444 -438 -36 0
-445 -439 -34 0
-446 -440 -35 0
-447 -441 -36 0
-448 -442 -34 0
-449 -443 -35 0
-450 -444 -36 0
-451 -445 -34 0
-452 -446 -35 0
-453 -447 -36 0
-454 -448 -34 0
-455 -449 -35 0
-456 -450 -36 0
-457 -451 -34 0
-458 -452 -35 0
-459 -453 -36 0
-460 -454 -34 0
-461 -455 -35 0
-462 -456 -36 0
-463 -457 -34 0
-464 -458 -35 0
-465 -459 -36 0
-466 -460 -34 0
-467 -461 -35 0
-468 -462 -36 0
-469 -463 -34 0
-470 -464 -35 0
-471 -465 -36 0
-472 -466 -34 0
-473 -467 -35 0
-474 -468 -36 0
-475 -469 -34 0
-476 -470 -35 0
-477 -471 -36 0
-478 -472 -34 0
-479 -473 -35 0
-480 -474 -36 0
-481 -475 -34 0
-482 -476 -35 0
-483 -477 -36 0
-484 -478 -34 0
-485 -479 -35 0
-486 -480 -36 0
-487 -481 -34 0
-488 -482 -35 0
-489 -483 -36 0
-490 -484 -34 0
-491 -485 -35 0
-492 -486 -36 0
-493 -487 -34 0
-494 -488 -35 0
-495 -489 -36 0
-496 -490 -34 0
-497 -491 -35 0
-498 -492 -36 0
-499 -493 -34 0
-500 -494 -35 0
-501 -495 -36 0
-502 -496 -34 0
-503 -497 -35 0
-504 -498 -36 0
-505 -499 -34 0
-506 -500 -35 0
-507 -501 -36 0
-508 -502 -34 0
-509 -503 -35 0
-510 -504 -36 0
-511 -505 -34 0
-512 -506 -35 0
-513 -507 -36 0
-514 -508 -34 0
-515 -509 -35 0
-516 -510 -36 0
-517 -511 -34 0
-518 -512 -35 0
-519 -513 -36 0
-520 -514 -34 0
-521 -515 -35 0
-522 -516 -36 0
-523 -517 -34 0
-524 -518 -35 0
-525 -519 -36 0
-526 -520 -34 0
-527 -521 -35 0
-528 -522 -36 0
-529 -523 -34 0
-530 -524 -35 0
-531 -525 -36 0
-532 -526 -34 0
-533 -527 -35 0
-534 -528 -36 0
-535 -529 -34 0
-536 -530 -35 0
-537 -531 -36 0
-538 -532 -34 0
-539 -533 -35 0
-540 -534 -36 0
-541 -535 -34 0
-542 -536 -35 0
-543 -537 -36 0
-544 -538 -34 0
-545 -539 -35 0
-546 -540 -36 0
-547 -541 -34 0
-548 -542 -35 0
-549 -543 -36 0
-550 -544 -34 0
-551 -545 -35 0
-552 -546 -36 0
-553 -547 -34 0
-554 -548 -35 0
-555 -549 -36 0
-556 -550 -34 0
-557 -551 -35 0
-558 -552 -36 0
-559 -553 -34 0
-560 -554 -35 0
-561 -555 -36 0
-562 -556 -34 0
-563 -557 -35 0
-564 -558 -36 0
-565 -559 -34 0
-566 -560 -35 0
-567 -561 -36 0
-568 -562 -34 0
-569 -563 -35 0
-570 -564 -36 0
-571 -565 -34 0
-572 -566 -35 0
-573 -567 -36 0
-574 -568 -34 0
-575 -569 -35 0
-576 -570 -36 0
-577 -571 -34 0
-578 -572 -35 0
-579 -573 -36 0
-580 -574 -34 0
-581 -575 -35 0
-582 -576 -36 0
-583 -577 -34 0
-584 -578 -35 0
-585 -579 -36 0
-586 -580 -34 0
-587 -581 -35 0
-588 -582 -36 0
-589 -583 -34 0
-590 -584 -35 0
-591 -585 -36 0
-592 -586 -34 0
-593 -587 -35 0
-594 -588 -36 0
-595 -589 -34 0
-596 -590 -35 0
-597 -591 -36 0
-598 -592 -34 0
-599 -593 -35 0
-600 -594 -36 0
-601 -595 -34 0
-602 -596 -35 0
-603 -597 -36 0
-604 -598 -34 0
-605 -599 -35 0
-606 -600 -36 0
-607 -601 -34 0
-608 -602 -35 0
-609 -603 -36 0
-610 -604 -34 0
-611 -605 -35 0
-612 -606 -36 0
-613 -607 -34 0
-614 -608 -35 0
-615 -609 -36 0
-616 -610 -34 0
-617 -611 -35 0
-618 -612 -36 0
-619 -613 -34 0
-620 -614 -35 0
-621 -615 -36 0
-622 -616 -34 0
-623 -617 -35 0
-624 -618 -36 0
-625 -619 -34 0
-626 -620 -35 0
-627 -621 -36 0
-628 -622 -34 0
-629 -623 -35 0
-630 -624 -36 0
-631 -625 -34 0
-632 -626 -35 0
-633 -627 -36 0
-634 -628 -34 0
-635 -629 -35 0
-636 -630 -36 0
-637 -631 -34 0
-638 -632 -35 0
-639 -633 -36 0
-640 -634 -34 0
-641 -635 -35 0
-642 -636 -36 0
-643 -637 -34 0
-644 -638 -35 0
-645 -639 -36 0
-646 -640 -34 0
-647 -641 -35 0
-648 -642 -36 0
-52 -10 -1 0
-53 -11 -2 0
-54 -12 -3 0
-52 -13 -4 0
-53 -14 -5 0
-54 -15 -6 0
-52 -16 -7 0
-53 -17 -8 0
-54 -18 -9 0
-52 -19 -10 0
-53 -20 -11 0
-54 -21 -12 0
-52 -22 -13 0
-53 -23 -14 0
-54 -24 -15 0
-52 -25 -16 0
-53 -26 -17 0
-54 -27 -18 0
-52 -28 -19 0
-53 -29 -20 0
-54 -30 -21 0
-52 -31 -22 0
-53 -32 -23 0
-54 -33 -24 0
-52 -34 -25 0
-53 -35 -26 0
-54 -36 -27 0
-52 -37 -28 0
-53 -38 -29 0
-54 -39 -30 0
-52 -40 -31 0
-53 -41 -32 0
-54 -42 -33 0
-52 -43 -34 0
-53 -44 -35 0
-54 -45 -36 0
-52 -46 -37 0
-53 -47 -38 0
-54 -48 -39 0
-52 -49 -40 0
-53 -50 -41 0
-54 -51 -42 0
-52 -43 0
-53 -44 0
-54 -45 0
-55 -52 -46 0
-56 -53 -47 0
-57 -54 -48 0
-58 -52 -49 0
-59 -53 -50 0
-60 -54 -51 0
-61 -52 0
-62 -53 0
-63 -54 0
-64 -55 -52 0
-65 -56 -53 0
-66 -57 -54 0
-67 -58 -52 0
-68 -59 -53 0
-69 -60 -54 0
-70 -61 -52 0
-71 -62 -53 0
-72 -63 -54 0
-73 -64 -52 0
-74 -65 -53 0
-75 -66 -54 0
-76 -67 -52 0
-77 -68 -53 0
-78 -69 -54 0
-79 -70 -52 0
-80 -71 -53 0
-81 -72 -54 0
-82 -73 -52 0
-83 -74 -53 0
-84 -75 -54 0
-85 -76 -52 0
-86 -77 -53 0
-87 -78 -54 0
-88 -79 -52 0
-89 -80 -53 0
-90 -81 -54 0
-91 -82 -52 0
-92 -83 -53 0
-93 -84 -54 0
-94 -85 -52 0
-95 -86 -53 0
-96 -87 -54 0
-97 -88 -52 0
-98 -89 -53 0
-99 -90 -54 0
-100 -91 -52 0
-101 -92 -53 0
-102 -93 -54 0
-103 -94 -52 0
-104 -95 -53 0
-105 -96 -54 0
-106 -97 -52 0
-107 -98 -53 0
-108 -99 -54 0
-109 -100 -52 0
-110 -101 -53 0
-111 -102 -54 0
-112 -103 -52 0
-113 -104 -53 0
-114 -105 -54 0
-115 -106 -52 0
-116 -107 -53 0
-117 -108 -54 0
-118 -109 -52 0
-119 -110 -53 0
-120 -111 -54 0
-121 -112 -52 0
-122 -113 -53 0
-123 -114 -54 0
-124 -115 -52 0
-125 -116 -53 0
-126 -117 -54 0
-127 -118 -52 0
-128 -119 -53 0
-129 -120 -54 0
-130 -121 -52 0
-131 -122 -53 0
-132 -123 -54 0
-133 -124 -52 0
-134 -125 -53 0
-135 -126 -54 0
-136 -127 -52 0
-137 -128 -53 0
-138 -129 -54 0
-139 -130 -52 0
-140 -131 -53 0
-141 -132 -54 0
-142 -133 -52 0
-143 -134 -53 0
-144 -135 -54 0
-145 -136 -52 0
-146 -137 -53 0
-147 -138 -54 0
-148 -139 -52 0
-149 -140 -53 0
-150 -141 -54 0
-151 -142 -52 0
-152 -143 -53 0
-153 -144 -54 0
-154 -145 -52 0
-155 -146 -53 0
-156 -147 -54 0
-157 -148 -52 0
-158 -149 -53 0
-159 -150 -54 0
-160 -151 -52 0
-161 -152 -53 0
-162 -153 -54 0
-163 -154 -52 0
-164 -155 -53 0
-165 -156 -54 0
-166 -157 -52 0
-167 -158 -53 0
-168 -159 -54 0
-169 -160 -52 0
-170 -161 -53 0
-171 -162 -54 0
-172 -163 -52 0
-173 -164 -53 0
-174 -165 -54 0
-175 -166 -52 0
-176 -167 -53 0
-177 -168 -54 0
-178 -169 -52 0
-179 -170 -53 0
-180 -171 -54 0
-181 -172 -52 0
-182 -173 -53 0
-183 -174 -54 0
-184 -175 -52 0
-185 -176 -53 0
-186 -177 -54 0
-187 -178 -52 0
-188 -179 -53 0
-189 -180 -54 0
-190 -181 -52 0
-191 -182 -53 0
-192 -183 -54 0
-193 -184 -52 0
-194 -185 -53 0
-195 -186 -54 0
-196 -187 -52 0
-197 -188 -53 0
-198 -189 -54 0
-199 -190 -52 0
-200 -191 -53 0
-201 -192 -54 0
-202 -193 -52 0
-203 -194 -53 0
-204 -195 -54 0
-205 -196 -52 0
-206 -197 -53 0
-207 -198 -54 0
-208 -199 -52 0
-209 -200 -53 0
-210 -201 -54 0
-211 -202 -52 0
-212 -203 -53 0
-213 -204 -54 0
-214 -205 -52 0
-215 -206 -53 0
-216 -207 -54 0
-217 -208 -52 0
-218 -209 -53 0
-219 -210 -54 0
-220 -211 -52 0
-221 -212 -53 0
-222 -213 -54 0
-223 -214 -52 0
-224 -215 -53 0
-225 -216 -54 0
-226 -217 -52 0
-227 -218 -53 0
-228 -219 -54 0
-229 -220 -52 0
-230 -221 -53 0
-231 -222 -54 0
-232 -223 -52 0
-233 -224 -53 0
-234 -225 -54 0
-235 -226 -52 0
-236 -227 -53 0
-237 -228 -54 0
-238 -229 -52 0
-239 -230 -53 0
-240 -231 -54 0
-241 -232 -52 0
-242 -233 -53 0
-243 -234 -54 0
-244 -235 -52 0
-245 -236 -53 0
-246 -237 -54 0
-247 -238 -52 0
-248 -239 -53 0
-249 -240 -54 0
-250 -241 -52 0
-251 -242 -53 0
-252 -243 -54 0
-253 -244 -52 0
-254 -245 -53 0
-255 -246 -54 0
-256 -247 -52 0
-257 -248 -53 0
-258 -249 -54 0
-259 -250 -52 0
-260 -251 -53 0
-261 -252 -54 0
-262 -253 -52 0
-263 -254 -53 0
-264 -255 -54 0
-265 -256 -52 0
-266 -257 -53 0
-267 -258 -54 0
-268 -259 -52 0
-269 -260 -53 0
-270 -261 -54 0
-271 -262 -52 0
-272 -263 -53 0
-273 -264 -54 0
-274 -265 -52 0
-275 -266 -53 0
-276 -267 -54 0
-277 -268 -52 0
-278 -269 -53 0
-279 -270 -54 0
-280 -271 -52 0
-281 -272 -53 0
-282 -273 -54 0
-283 -274 -52 0
-284 -275 -53 0
-285 -276 -54 0
-286 -277 -52 0
-287 -278 -53 0
-288 -279 -54 0
-289 -280 -52 0
-290 -281 -53 0
-291 -282 -54 0
-292 -283 -52 0
-293 -284 -53 0
-294 -285 -54 0
-295 -286 -52 0
-296 -287 -53 0
-297 -288 -54 0
-298 -289 -52 0
-299 -290 -53 0
-300 -291 -54 0
-301 -292 -52 0
-302 -293 -53 0
-303 -294 -54 0
-304 -295 -52 0
-305 -296 -53 0
-306 -297 -54 0
-307 -298 -52 0
-308 -299 -53 0
-309 -300 -54 0
-310 -301 -52 0
-311 -302 -53 0
-312 -303 -54 0
-313 -304 -52 0
-314 -305 -53 0
-315 -306 -54 0
-316 -307 -52 0
-317 -308 -53 0
-318 -309 -54 0
-319 -310 -52 0
-320 -311 -53 0
-321 -312 -54 0
-322 -313 -52 0
-323 -314 -53 0
-324 -315 -54 0
-325 -316 -52 0
-326 -317 -53 0
-327 -318 -54 0
-328 -319 -52 0
-329 -320 -53 0
-330 -321 -54 0
-331 -322 -52 0
-332 -323 -53 0
-333 -324 -54 0
-334 -325 -52 0
-335 -326 -53 0
-336 -327 -54 0
-337 -328 -52 0
-338 -329 -53 0
-339 -330 -54 0
-340 -331 -52 0
-341 -332 -53 0
-342 -333 -54 0
-343 -334 -52 0
-344 -335 -53 0
-345 -336 -54 0
-346 -337 -52 0
-347 -338 -53 0
-348 -339 -54 0
-349 -340 -52 0
-350 -341 -53 0
-351 -342 -54 0
-352 -343 -52 0
-353 -344 -53 0
-354 -345 -54 0
-355 -346 -52 0
-356 -347 -53 0
-357 -348 -54 0
-358 -349 -52 0
-359 -350 -53 0
-360 -351 -54 0
-361 -352 -52 0
-362 -353 -53 0
-363 -354 -54 0
-364 -355 -52 0
-365 -356 -53 0
-366 -357 -54 0
-367 -358 -52 0
-368 -359 -53 0
-369 -360 -54 0
-370 -361 -52 0
-371 -362 -53 0
-372 -363 -54 0
-373 -364 -52 0
-374 -365 -53 0
-375 -366 -54 0
-376 -367 -52 0
-377 -368 -53 0
-378 -369 -54 0
-379 -370 -52 0
-380 -371 -53 0
-381 -372 -54 0
-382 -373 -52 0
-383 -374 -53 0
-384 -375 -54 0
-385 -376 -52 0
-386 -377 -53 0
-387 -378 -54 0
-388 -379 -52 0
-389 -380 -53 0
-390 -381 -54 0
-391 -382 -52 0
-392 -383 -53 0
-393 -384 -54 0
-394 -385 -52 0
-395 -386 -53 0
-396 -387 -54 0
-397 -388 -52 0
-398 -389 -53 0
-399 -390 -54 0
-400 -391 -52 0
-401 -392 -53 0
-402 -393 -54 0
-403 -394 -52 0
-404 -395 -53 0
-405 -396 -54 0
-406 -397 -52 0
-407 -398 -53 0
-408 -399 -54 0
-409 -400 -52 0
-410 -401 -53 0
-411 -402 -54 0
-412 -403 -52 0
-413 -404 -53 0
-414 -405 -54 0
-415 -406 -52 0
-416 -407 -53 0
-417 -408 -54 0
-418 -409 -52 0
-419 -410 -53 0
-420 -411 -54 0
-421 -412 -52 0
-422 -413 -53 0
-423 -414 -54 0
-424 -415 -52 0
-425 -416 -53 0
-426 -417 -54 0
-427 -418 -52 0
-428 -419 -53 0
-429 -420 -54 0
-430 -421 -52 0
-431 -422 -53 0
-432 -423 -54 0
-433 -424 -52 0
-434 -425 -53 0
-435 -426 -54 0
-436 -427 -52 0
-437 -428 -53 0
-438 -429 -54 0
-439 -430 -52 0
-440 -431 -53 0
-441 -432 -54 0
-442 -433 -52 0
-443 -434 -53 0
-444 -435 -54 0
-445 -436 -52 0
-446 -437 -53 0
-447 -438 -54 0
-448 -439 -52 0
-449 -440 -53 0
-450 -441 -54 0
-451 -442 -52 0
-452 -443 -53 0
-453 -444 -54 0
-454 -445 -52 0
-455 -446 -53 0
-456 -447 -54 0
-457 -448 -52 0
-458 -449 -53 0
-459 -450 -54 0
-460 -451 -52 0
-461 -452 -53 0
-462 -453 -54 0
-463 -454 -52 0
-464 -455 -53 0
-465 -456 -54 0
-466 -457 -52 0
-467 -458 -53 0
-468 -459 -54 0
-469 -460 -52 0
-470 -461 -53 0
-471 -462 -54 0
-472 -463 -52 0
-473 -464 -53 0
-474 -465 -54 0
-475 -466 -52 0
-476 -467 -53 0
-477 -468 -54 0
-478 -469 -52 0
-479 -470 -53 0
-480 -471 -54 0
-481 -472 -52 0
-482 -473 -53 0
-483 -474 -54 0
-484 -475 -52 0
-485 -476 -53 0
-486 -477 -54 0
-487 -478 -52 0
-488 -479 -53 0
-489 -480 -54 0
-490 -481 -52 0
-491 -482 -53 0
-492 -483 -54 0
-493 -484 -52 0
-494 -485 -53 0
-495 -486 -54 0
-496 -487 -52 0
-497 -488 -53 0
-498 -489 -54 0
-499 -490 -52 0
-500 -491 -53 0
-501 -492 -54 0
-502 -493 -52 0
-503 -494 -53 0
-504 -495 -54 0
-505 -496 -52 0
-506 -497 -53 0
-507 -498 -54 0
-508 -499 -52 0
-509 -500 -53 0
-510 -501 -54 0
-511 -502 -52 0
-512 -503 -53 0
-513 -504 -54 0
-514 -505 -52 0
-515 -506 -53 0
-516 -507 -54 0
-517 -508 -52 0
-518 -509 -53 0
-519 -510 -54 0
-520 -511 -52 0
-521 -512 -53 0
-522 -513 -54 0
-523 -514 -52 0
-524 -515 -53 0
-525 -516 -54 0
-526 -517 -52 0
-527 -518 -53 0
-528 -519 -54 0
-529 -520 -52 0
-530 -521 -53 0
-531 -522 -54 0
-532 -523 -52 0
-533 -524 -53 0
-534 -525 -54 0
-535 -526 -52 0
-536 -527 -53 0
-537 -528 -54 0
-538 -529 -52 0
-539 -530 -53 0
-540 -531 -54 0
-541 -532 -52 0
-542 -533 -53 0
-543 -534 -54 0
-544 -535 -52 0
-545 -536 -53 0
-546 -537 -54 0
-547 -538 -52 0
-548 -539 -53 0
-549 -540 -54 0
-550 -541 -52 0
-551 -542 -53 0
-552 -543 -54 0
-553 -544 -52 0
-554 -545 -53 0
-555 -546 -54 0
-556 -547 -52 0
-557 -548 -53 0
-558 -549 -54 0
-559 -550 -52 0
-560 -551 -53 0
-561 -552 -54 0
-562 -553 -52 0
-563 -554 -53 0
-564 -555 -54 0
-565 -556 -52 0
-566 -557 -53 0
-567 -558 -54 0
-568 -559 -52 0
-569 -560 -53 0
-570 -561 -54 0
-571 -562 -52 0
-572 -563 -53 0
-573 -564 -54 0
-574 -565 -52 0
-575 -566 -53 0
-576 -567 -54 0
-577 -568 -52 0
-578 -569 -53 0
-579 -570 -54 0
-580 -571 -52 0
-581 -572 -53 0
-582 -573 -54 0
-583 -574 -52 0
-584 -575 -53 0
-585 -576 -54 0
-586 -577 -52 0
-587 -578 -53 0
-588 -579 -54 0
-589 -580 -52 0
-590 -581 -53 0
-591 -582 -54 0
-592 -583 -52 0
-593 -584 -53 0
-594 -585 -54 0
-595 -586 -52 0
-596 -587 -53 0
-597 -588 -54 0
-598 -589 -52 0
-599 -590 -53 0
-600 -591 -54 0
-601 -592 -52 0
-602 -593 -53 0
-603 -594 -54 0
-604 -595 -52 0
-605 -596 -53 0
-606 -597 -54 0
-607 -598 -52 0
-608 -599 -53 0
-609 -600 -54 0
-610 -601 -52 0
-611 -602 -53 0
-612 -603 -54 0
-613 -604 -52 0
-614 -605 -53 0
-615 -606 -54 0
-616 -607 -52 0
-617 -608 -53 0
-618 -609 -54 0
-619 -610 -52 0
-620 -611 -53 0
-621 -612 -54 0
-622 -613 -52 0
-623 -614 -53 0
-624 -615 -54 0
-625 -616 -52 0
-626 -617 -53 0
-627 -618 -54 0
-628 -619 -52 0
-629 -620 -53 0
-630 -621 -54 0
-631 -622 -52 0
-632 -623 -53 0
-633 -624 -54 0
-634 -625 -52 0
-635 -626 -53 0
-636 -627 -54 0
-637 -628 -52 0
-638 -629 -53 0
-639 -630 -54 0
-640 -631 -52 0
-641 -632 -53 0
-642 -633 -54 0
-643 -634 -52 0
-644 -635 -53 0
-645 -636 -54 0
-646 -637 -52 0
-647 -638 -53 0
-648 -639 -54 0
-70 -13 -1 0
-71 -14 -2 0
-72 -15 -3 0
-70 -16 -4 0
-71 -17 -5 0
-72 -18 -6 0
-70 -19 -7 0
-71 -20 -8 0
-72 -21 -9 0
-70 -22 -10 0
-71 -23 -11 0
-72 -24 -12 0
-70 -25 -13 0
-71 -26 -14 0
-72 -27 -15 0
-70 -28 -16 0
-71 -29 -17 0
-72 -30 -18 0
-70 -31 -19 0
-71 -32 -20 0
-72 -33 -21 0
-70 -34 -22 0
-71 -35 -23 0
-72 -36 -24 0
-70 -37 -25 0
-71 -38 -26 0
-72 -39 -27 0
-70 -40 -28 0
-71 -41 -29 0
-72 -42 -30 0
-70 -43 -31 0
-71 -44 -32 0
-72 -45 -33 0
-70 -46 -34 0
-71 -47 -35 0
-72 -48 -36 0
-70 -49 -37 0
-71 -50 -38 0
-72 -51 -39 0
-70 -52 -40 0
-71 -53 -41 0
-72 -54 -42 0
-70 -55 -43 0
-71 -56 -44 0
-72 -57 -45 0
-70 -58 -46 0
-71 -59 -47 0
-72 -60 -48 0
-70 -61 -49 0
-71 -62 -50 0
-72 -63 -51 0
-70 -64 -52 0
-71 -65 -53 0
-72 -66 -54 0
-70 -67 -55 0
-71 -68 -56 0
-72 -69 -57 0
-70 -58 0
-71 -59 0
-72 -60 0
-73 -70 -61 0
-74 -71 -62 0
-75 -72 -63 0
-76 -70 -64 0
-77 -71 -65 0
-78 -72 -66 0
-79 -70 -67 0
-80 -71 -68 0
-81 -72 -69 0
-82 -70 0
-83 -71 0
-84 -72 0
-85 -73 -70 0
-86 -74 -71 0
-87 -75 -72 0
-88 -76 -70 0
-89 -77 -71 0
-90 -78 -72 0
-91 -79 -70 0
-92 -80 -71 0
-93 -81 -72 0
-94 -82 -70 0
-95 -83 -71 0
-96 -84 -72 0
-97 -85 -70 0
-98 -86 -71 0
-99 -87 -72 0
-100 -88 -70 0
-101 -89 -71 0
-102 -90 -72 0
-103 -91 -70 0
-104 -92 -71 0
-105 -93 -72 0
-106 -94 -70 0
-107 -95 -71 0
-108 -96 -72 0
-109 -97 -70 0
-110 -98 -71 0
-111 -99 -72 0
-112 -100 -70 0
-113 -101 -71 0
-114 -102 -72 0
-115 -103 -70 0
-116 -104 -71 0
-117 -105 -72 0
-118 -106 -70 0
-119 -107 -71 0
-120 -108 -72 0
-121 -109 -70 0
-122 -110 -71 0
-123 -111 -72 0
-124 -112 -70 0
-125 -113 -71 0
-126 -114 -72 0
-127 -115 -70 0
-128 -116 -71 0
-129 -117 -72 0
-130 -118 -70 0
-131 -119 -71 0
-132 -120 -72 0
-133 -121 -70 0
-134 -122 -71 0
-135 -123 -72 0
-136 -124 -70 0
-137 -125 -71 0
-138 -126 -72 0
-139 -127 -70 0
-140 -128 -71 0
-141 -129 -72 0
-142 -130 -70 0
-143 -131 -71 0
-144 -132 -72 0
-145 -133 -70 0
-146 -134 -71 0
-147 -135 -72 0
-148 -136 -70 0
-149 -137 -71 0
-150 -138 -72 0
-151 -139 -70 0
-152 -140 -71 0
-153 -141 -72 0
-154 -142 -70 0
-155 -143 -71 0
-156 -144 -72 0
-157 -145 -70 0
-158 -146 -71 0
-159 -147 -72 0
-160 -148 -70 0
-161 -149 -71 0
-162 -150 -72 0
-163 -151 -70 0
-164 -152 -71 0
-165 -153 -72 0
-166 -154 -70 0
-167 -155 -71 0
-168 -156 -72 0
-169 -157 -70 0
-170 -158 -71 0
-171 -159 -72 0
-172 -160 -70 0
-173 -161 -71 0
-174 -162 -72 0
-175 -163 -70 0
-176 -164 -71 0
-177 -165 -72 0
-178 -166 -70 0
-179 -167 -71 0
-180 -168 -72 0
-181 -169 -70 0
-182 -170 -71 0
-183 -171 -72 0
-184 -172 -70 0
-185 -173 -71 0
-186 -174 -72 0
-187 -175 -70 0
-188 -176 -71 0
-189 -177 -72 0
-190 -178 -70 0
-191 -179 -71 0
-192 -180 -72 0
-193 -181 -70 0
-194 -182 -71 0
-195 -183 -72 0
-196 -184 -70 0
-197 -185 -71 0
-198 -186 -72 0
-199 -187 -70 0
-200 -188 -71 0
-201 -189 -72 0
-202 -190 -70 0
-203 -191 -71 0
-204 -192 -72 0
-205 -193 -70 0
-206 -194 -71 0
-207 -195 -72 0
-208 -196 -70 0
-209 -197 -71 0
-210 -198 -72 0
-211 -199 -70 0
-212 -200 -71 0
-213 -201 -72 0
-214 -202 -70 0
-215 -203 -71 0
-216 -204 -72 0
-217 -205 -70 0
-218 -206 -71 0
-219 -207 -72 0
-220 -208 -70 0
-221 -209 -71 0
-222 -210 -72 0
-223 -211 -70 0
-224 -212 -71 0
-225 -213 -72 0
-226 -214 -70 0
-227 -215 -71 0
-228 -216 -72 0
-229 -217 -70 0
-230 -218 -71 0
-231 -219 -72 0
-232 -220 -70 0
-233 -221 -71 0
-234 -222 -72 0
-235 -223 -70 0
-236 -224 -71 0
-237 -225 -72 0
-238 -226 -70 0
-239 -227 -71 0
-240 -228 -72 0
-241 -229 -70 0
-242 -230 -71 0
-243 -231 -72 0
-244 -232 -70 0
-245 -233 -71 0
-246 -234 -72 0
-247 -235 -70 0
-248 -236 -71 0
-249 -237 -72 0
-250 -238 -70 0
-251 -239 -71 0
-252 -240 -72 0
-253 -241 -70 0
-254 -242 -71 0
-255 -243 -72 0
-256 -244 -70 0
-257 -245 -71 0
-258 -246 -72 0
-259 -247 -70 0
-260 -248 -71 0
-261 -249 -72 0
-262 -250 -70 0
-263 -251 -71 0
-264 -252 -72 0
-265 -253 -70 0
-266 -254 -71 0
-267 -255 -72 0
-268 -256 -70 0
-269 -257 -71 0
-270 -258 -72 0
-271 -259 -70 0
-272 -260 -71 0
-273 -261 -72 0
-274 -262 -70 0
-275 -263 -71 0
-276 -264 -72 0
-277 -265 -70 0
-278 -266 -71 0
-279 -267 -72 0
-280 -268 -70 0
-281 -269 -71 0
-282 -270 -72 0
-283 -271 -70 0
-284 -272 -71 0
-285 -273 -72 0
-286 -274 -70 0
-287 -275 -71 0
-288 -276 -72 0
-289 -277 -70 0
-290 -278 -71 0
-291 -279 -72 0
-292 -280 -70 0
-293 -281 -71 0
-294 -282 -72 0
-295 -283 -70 0
-296 -284 -71 0
-297 -285 -72 0
-298 -286 -70 0
-299 -287 -71 0
-300 -288 -72 0
-301 -289 -70 0
-302 -290 -71 0
-303 -291 -72 0
-304 -292 -70 0
-305 -293 -71 0
-306 -294 -72 0
-307 -295 -70 0
-308 -296 -71 0
-309 -297 -72 0
-310 -298 -70 0
-311 -299 -71 0
-312 -300 -72 0
-313 -301 -70 0
-314 -302 -71 0
-315 -303 -72 0
-316 -304 -70 0
-317 -305 -71 0
-318 -306 -72 0
-319 -307 -70 0
-320 -308 -71 0
-321 -309 -72 0
-322 -310 -70 0
-323 -311 -71 0
-324 -312 -72 0
-325 -313 -70 0
-326 -314 -71 0
-327 -315 -72 0
-328 -316 -70 0
-329 -317 -71 0
-330 -318 -72 0
-331 -319 -70 0
-332 -320 -71 0
-333 -321 -72 0
-334 -322 -70 0
-335 -323 -71 0
-336 -324 -72 0
-337 -325 -70 0
-338 -326 -71 0
-339 -327 -72 0
-340 -328 -70 0
-341 -329 -71 0
-342 -330 -72 0
-343 -331 -70 0
-344 -332 -71 0
-345 -333 -72 0
-346 -334 -70 0
-347 -335 -71 0
-348 -336 -72 0
-349 -337 -70 0
-350 -338 -71 0
-351 -339 -72 0
-352 -340 -70 0
-353 -341 -71 0
-354 -342 -72 0
-355 -343 -70 0
-356 -344 -71 0
-357 -345 -72 0
-358 -346 -70 0
-359 -347 -71 0
-360 -348 -72 0
-361 -349 -70 0
-362 -350 -71 0
-363 -351 -72 0
-364 -352 -70 0
-365 -353 -71 0
-366 -354 -72 0
-367 -355 -70 0
-368 -356 -71 0
-369 -357 -72 0
-370 -358 -70 0
-371 -359 -71 0
-372 -360 -72 0
-373 -361 -70 0
-374 -362 -71 0
-375 -363 -72 0
-376 -364 -70 0
-377 -365 -71 0
-378 -366 -72 0
-379 -367 -70 0
-380 -368 -71 0
-381 -369 -72 0
-382 -370 -70 0
-383 -371 -71 0
-384 -372 -72 0
-385 -373 -70 0
-386 -374 -71 0
-387 -375 -72 0
-388 -376 -70 0
-389 -377 -71 0
-390 -378 -72 0
-391 -379 -70 0
-392 -380 -71 0
-393 -381 -72 0
-394 -382 -70 0
-395 -383 -71 0
-396 -384 -72 0
-397 -385 -70 0
-398 -386 -71 0
-399 -387 -72 0
-400 -388 -70 0
-401 -389 -71 0
-402 -390 -72 0
-403 -391 -70 0
-404 -392 -71 0
-405 -393 -72 0
-406 -394 -70 0
-407 -395 -71 0
-408 -396 -72 0
-409 -397 -70 0
-410 -398 -71 0
-411 -399 -72 0
-412 -400 -70 0
-413 -401 -71 0
-414 -402 -72 0
-415 -403 -70 0
-416 -404 -71 0
-417 -405 -72 0
-418 -406 -70 0
-419 -407 -71 0
-420 -408 -72 0
-421 -409 -70 0
-422 -410 -71 0
-423 -411 -72 0
-424 -412 -70 0
-425 -413 -71 0
-426 -414 -72 0
-427 -415 -70 0
-428 -416 -71 0
-429 -417 -72 0
-430 -418 -70 0
-431 -419 -71 0
-432 -420 -72 0
-433 -421 -70 0
-434 -422 -71 0
-435 -423 -72 0
-436 -424 -70 0
-437 -425 -71 0
-438 -426 -72 0
-439 -427 -70 0
-440 -428 -71 0
-441 -429 -72 0
-442 -430 -70 0
-443 -431 -71 0
-444 -432 -72 0
-445 -433 -70 0
-446 -434 -71 0
-447 -435 -72 0
-448 -436 -70 0
-449 -437 -71 0
-450 -438 -72 0
-451 -439 -70 0
-452 -440 -71 0
-453 -441 -72 0
-454 -442 -70 0
-455 -443 -71 0
-456 -444 -72 0
-457 -445 -70 0
-458 -446 -71 0
-459 -447 -72 0
-460 -448 -70 0
-461 -449 -71 0
-462 -450 -72 0
-463 -451 -70 0
-464 -452 -71 0
-465 -453 -72 0
-466 -454 -70 0
-467 -455 -71 0
-468 -456 -72 0
-469 -457 -70 0
-470 -458 -71 0
-471 -459 -72 0
-472 -460 -70 0
-473 -461 -71 0
-474 -462 -72 0
-475 -463 -70 0
-476 -464 -71 0
-477 -465 -72 0
-478 -466 -70 0
-479 -467 -71 0
-480 -468 -72 0
-481 -469 -70 0
-482 -470 -71 0
-483 -471 -72 0
-484 -472 -70 0
-485 -473 -71 0
-486 -474 -72 0
-487 -475 -70 0
-488 -476 -71 0
-489 -477 -72 0
-490 -478 -70 0
-491 -479 -71 0
-492 -480 -72 0
-493 -481 -70 0
-494 -482 -71 0
-495 -483 -72 0
-496 -484 -70 0
-497 -485 -71 0
-498 -486 -72 0
-499 -487 -70 0
-500 -488 -71 0
-501 -489 -72 0
-502 -490 -70 0
-503 -491 -71 0
-504 -492 -72 0
-505 -493 -70 0
-506 -494 -71 0
-507 -495 -72 0
-508 -496 -70 0
-509 -497 -71 0
-510 -498 -72 0
-511 -499 -70 0
-512 -500 -71 0
-513 -501 -72 0
-514 -502 -70 0
-515 -503 -71 0
-516 -504 -72 0
-517 -505 -70 0
-518 -506 -71 0
-519 -507 -72 0
-520 -508 -70 0
-521 -509 -71 0
-522 -510 -72 0
-523 -511 -70 0
-524 -512 -71 0
-525 -513 -72 0
-526 -514 -70 0
-527 -515 -71 0
-528 -516 -72 0
-529 -517 -70 0
-530 -518 -71 0
-531 -519 -72 0
-532 -520 -70 0
-533 -521 -71 0
-534 -522 -72 0
-535 -523 -70 0
-536 -524 -71 0
-537 -525 -72 0
-538 -526 -70 0
-539 -527 -71 0
-540 -528 -72 0
-541 -529 -70 0
-542 -530 -71 0
-543 -531 -72 0
-544 -532 -70 0
-545 -533 -71 0
-546 -534 -72 0
-547 -535 -70 0
-548 -536 -71 0
-549 -537 -72 0
-550 -538 -70 0
-551 -539 -71 0
-552 -540 -72 0
-553 -541 -70 0
-554 -542 -71 0
-555 -543 -72 0
-556 -544 -70 0
-557 -545 -71 0
-558 -546 -72 0
-559 -547 -70 0
-560 -548 -71 0
-561 -549 -72 0
-562 -550 -70 0
-563 -551 -71 0
-564 -552 -72 0
-565 -553 -70 0
-566 -554 -71 0
-567 -555 -72 0
-568 -556 -70 0
-569 -557 -71 0
-570 -558 -72 0
-571 -559 -70 0
-572 -560 -71 0
-573 -561 -72 0
-574 -562 -70 0
-575 -563 -71 0
-576 -564 -72 0
-577 -565 -70 0
-578 -566 -71 0
-579 -567 -72 0
-580 -568 -70 0
-581 -569 -71 0
-582 -570 -72 0
-583 -571 -70 0
-584 -572 -71 0
-585 -573 -72 0
-586 -574 -70 0
-587 -575 -71 0
-588 -576 -72 0
-589 -577 -70 0
-590 -578 -71 0
-591 -579 -72 0
-592 -580 -70 0
-593 -581 -71 0
-594 -582 -72 0
-595 -583 -70 0
-596 -584 -71 0
-597 -585 -72 0
-598 -586 -70 0
-599 -587 -71 0
-600 -588 -72 0
-601 -589 -70 0
-602 -590 -71 0
-603 -591 -72 0
-604 -592 -70 0
-605 -593 -71 0
-606 -594 -72 0
-607 -595 -70 0
-608 -596 -71 0
-609 -597 -72 0
-610 -598 -70 0
-611 -599 -71 0
-612 -600 -72 0
-613 -601 -70 0
-614 -602 -71 0
-615 -603 -72 0
-616 -604 -70 0
-617 -605 -71 0
-618 -606 -72 0
-619 -607 -70 0
-620 -608 -71 0
-621 -609 -72 0
-622 -610 -70 0
-623 -611 -71 0
-624 -612 -72 0
-625 -613 -70 0
-626 -614 -71 0
-627 -615 -72 0
-628 -616 -70 0
-629 -617 -71 0
-630 -618 -72 0
-631 -619 -70 0
-632 -620 -71 0
-633 -621 -72 0
-634 -622 -70 0
-635 -623 -71 0
-636 -624 -72 0
-637 -625 -70 0
-638 -626 -71 0
-639 -627 -72 0
-640 -628 -70 0
-641 -629 -71 0
-642 -630 -72 0
-643 -631 -70 0
-644 -632 -71 0
-645 -633 -72 0
-646 -634 -70 0
-647 -635 -71 0
-648 -636 -72 0
-88 -16 -1 0
-89 -17 -2 0
-90 -18 -3 0
-88 -19 -4 0
-89 -20 -5 0
-90 -21 -6 0
-88 -22 -7 0
-89 -23 -8 0
-90 -24 -9 0
-88 -25 -10 0
-89 -26 -11 0
-90 -27 -12 0
-88 -28 -13 0
-89 -29 -14 0
-90 -30 -15 0
-88 -31 -16 0
-89 -32 -17 0
-90 -33 -18 0
-88 -34 -19 0
-89 -35 -20 0
-90 -36 -21 0
-88 -37 -22 0
-89 -38 -23 0
-90 -39 -24 0
-88 -40 -25 0
-89 -41 -26 0
-90 -42 -27 0
-88 -43 -28 0
-89 -44 -29 0
-90 -45 -30 0
-88 -46 -31 0
-89 -47 -32 0
-90 -48 -33 0
-88 -49 -34 0
-89 -50 -35 0
-90 -51 -36 0
-88 -52 -37 0
-89 -53 -38 0
-90 -54 -39 0
-88 -55 -40 0
-89 -56 -41 0
-90 -57 -42 0
-88 -58 -43 0
-89 -59 -44 0
-90 -60 -45 0
-88 -61 -46 0
-89 -62 -47 0
-90 -63 -48 0
-88 -64 -49 0
-89 -65 -50 0
-90 -66 -51 0
-88 -67 -52 0
-89 -68 -53 0
-90 -69 -54 0
-88 -70 -55 0
-89 -71 -56 0
-90 -72 -57 0
-88 -73 -58 0
-89 -74 -59 0
-90 -75 -60 0
-88 -76 -61 0
-89 -77 -62 0
-90 -78 -63 0
-88 -79 -64 0
-89 -80 -65 0
-90 -81 -66 0
-88 -82 -67 0
-89 -83 -68 0
-90 -84 -69 0
-88 -85 -70 0
-89 -86 -71 0
-90 -87 -72 0
-88 -73 0
-89 -74 0
-90 -75 0
-91 -88 -76 0
-92 -89 -77 0
-93 -90 -78 0
-94 -88 -79 0
-95 -89 -80 0
-96 -90 -81 0
-97 -88 -82 0
-98 -89 -83 0
-99 -90 -84 0
-100 -88 -85 0
-101 -89 -86 0
-102 -90 -87 0
-103 -88 0
-104 -89 0
-105 -90 0
-106 -91 -88 0
-107 -92 -89 0
-108 -93 -90 0
-109 -94 -88 0
-110 -95 -89 0
-111 -96 -90 0
-112 -97 -88 0
-113 -98 -89 0
-114 -99 -90 0
-115 -100 -88 0
-116 -101 -89 0
-117 -102 -90 0
-118 -103 -88 0
-119 -104 -89 0
-120 -105 -90 0
-121 -106 -88 0
-122 -107 -89 0
-123 -108 -90 0
-124 -109 -88 0
-125 -110 -89 0
-126 -111 -90 0
-127 -112 -88 0
-128 -113 -89 0
-129 -114 -90 0
-130 -115 -88 0
-131 -116 -89 0
-132 -117 -90 0
-133 -118 -88 0
-134 -119 -89 0
-135 -120 -90 0
-136 -121 -88 0
-137 -122 -89 0
-138 -123 -90 0
-139 -124 -88 0
-140 -125 -89 0
-141 -126 -90 0
-142 -127 -88 0
-143 -128 -89 0
-144 -129 -90 0
-145 -130 -88 0
-146 -131 -89 0
-147 -132 -90 0
-148 -133 -88 0
-149 -134 -89 0
-150 -135 -90 0
-151 -136 -88 0
-152 -137 -89 0
-153 -138 -90 0
-154 -139 -88 0
-155 -140 -89 0
-156 -141 -90 0
-157 -142 -88 0
-158 -143 -89 0
-159 -144 -90 0
-160 -145 -88 0
-161 -146 -89 0
-162 -147 -90 0
-163 -148 -88 0
-164 -149 -89 0
-165 -150 -90 0
-166 -151 -88 0
-167 -152 -89 0
-168 -153 -90 0
-169 -154 -88 0
-170 -155 -89 0
-171 -156 -90 0
-172 -157 -88 0
-173 -158 -89 0
-174 -159 -90 0
-175 -160 -88 0
-176 -161 -89 0
-177 -162 -90 0
-178 -163 -88 0
-179 -164 -89 0
-180 -165 -90 0
-181 -166 -88 0
-182 -167 -89 0
-183 -168 -90 0
-184 -169 -88 0
-185 -170 -89 0
-186 -171 -90 0
-187 -172 -88 0
-188 -173 -89 0
-189 -174 -90 0
-190 -175 -88 0
-191 -176 -89 0
-192 -177 -90 0
-193 -178 -88 0
-194 -179 -89 0
-195 -180 -90 0
-196 -181 -88 0
-197 -182 -89 0
-198 -183 -90 0
-199 -184 -88 0
-200 -185 -89 0
-201 -186 -90 0
-202 -187 -88 0
-203 -188 -89 0
-204 -189 -90 0
-205 -190 -88 0
-206 -191 -89 0
-207 -192 -90 0
-208 -193 -88 0
-209 -194 -89 0
-210 -195 -90 0
-211 -196 -88 0
-212 -197 -89 0
-213 -198 -90 0
-214 -199 -88 0
-215 -200 -89 0
-216 -201 -90 0
-217 -202 -88 0
-218 -203 -89 0
-219 -204 -90 0
-220 -205 -88 0
-221 -206 -89 0
-222 -207 -90 0
-223 -208 -88 0
-224 -209 -89 0
-225 -210 -90 0
-226 -211 -88 0
-227 -212 -89 0
-228 -213 -90 0
-229 -214 -88 0
-230 -215 -89 0
-231 -216 -90 0
-232 -217 -88 0
-233 -218 -89 0
-234 -219 -90 0
-235 -220 -88 0
-236 -221 -89 0
-237 -222 -90 0
-238 -223 -88 0
-239 -224 -89 0
-240 -225 -90 0
-241 -226 -88 0
-242 -227 -89 0
-243 -228 -90 0
-244 -229 -88 0
-245 -230 -89 0
-246 -231 -90 0
-247 -232 -88 0
-248 -233 -89 0
-249 -234 -90 0
-250 -235 -88 0
-251 -236 -89 0
-252 -237 -90 0
-253 -238 -88 0
-254 -239 -89 0
-255 -240 -90 0
-256 -241 -88 0
-257 -242 -89 0
-258 -243 -90 0
-259 -244 -88 0
-260 -245 -89 0
-261 -246 -90 0
-262 -247 -88 0
-263 -248 -89 0
-264 -249 -90 0
-265 -250 -88 0
-266 -251 -89 0
-267 -252 -90 0
-268 -253 -88 0
-269 -254 -89 0
-270 -255 -90 0
-271 -256 -88 0
-272 -257 -89 0
-273 -258 -90 0
-274 -259 -88 0
-275 -260 -89 0
-276 -261 -90 0
-277 -262 -88 0
-278 -263 -89 0
-279 -264 -90 0
-280 -265 -88 0
-281 -266 -89 0
-282 -267 -90 0
-283 -268 -88 0
-284 -269 -89 0
-285 -270 -90 0
-286 -271 -88 0
-287 -272 -89 0
-288 -273 -90 0
-289 -274 -88 0
-290 -275 -89 0
-291 -276 -90 0
-292 -277 -88 0
-293 -278 -89 0
-294 -279 -90 0
-295 -280 -88 0
-296 -281 -89 0
-297 -282 -90 0
-298 -283 -88 0
-299 -284 -89 0
-300 -285 -90 0
-301 -286 -88 0
-302 -287 -89 0
-303 -288 -90 0
-304 -289 -88 0
-305 -290 -89 0
-306 -291 -90 0
-307 -292 -88 0
-308 -293 -89 0
-309 -294 -90 0
-310 -295 -88 0
-311 -296 -89 0
-312 -297 -90 0
-313 -298 -88 0
-314 -299 -89 0
-315 -300 -90 0
-316 -301 -88 0
-317 -302 -89 0
-318 -303 -90 0
-319 -304 -88 0
-320 -305 -89 0
-321 -306 -90 0
-322 -307 -88 0
-323 -308 -89 0
-324 -309 -90 0
-325 -310 -88 0
-326 -311 -89 0
-327 -312 -90 0
-328 -313 -88 0
-329 -314 -89 0
-330 -315 -90 0
-331 -316 -88 0
-332 -317 -89 0
-333 -318 -90 0
-334 -319 -88 0
-335 -320 -89 0
-336 -321 -90 0
-337 -322 -88 0
-338 -323 -89 0
-339 -324 -90 0
-340 -325 -88 0
-341 -326 -89 0
-342 -327 -90 0
-343 -328 -88 0
-344 -329 -89 0
-345 -330 -90 0
-346 -331 -88 0
-347 -332 -89 0
-348 -333 -90 0
-349 -334 -88 0
-350 -335 -89 0
-351 -336 -90 0
-352 -337 -88 0
-353 -338 -89 0
-354 -339 -90 0
-355 -340 -88 0
-356 -341 -89 0
-357 -342 -90 0
-358 -343 -88 0
-359 -344 -89 0
-360 -345 -90 0
-361 -346 -88 0
-362 -347 -89 0
-363 -348 -90 0
-364 -349 -88 0
-365 -350 -89 0
-366 -351 -90 0
-367 -352 -88 0
-368 -353 -89 0
-369 -354 -90 0
-370 -355 -88 0
-371 -356 -89 0
-372 -357 -90 0
-373 -358 -88 0
-374 -359 -89 0
-375 -360 -90 0
-376 -361 -88 0
-377 -362 -89 0
-378 -363 -90 0
-379 -364 -88 0
-380 -365 -89 0
-381 -366 -90 0
-382 -367 -88 0
-383 -368 -89 0
-384 -369 -90 0
-385 -370 -88 0
-386 -371 -89 0
-387 -372 -90 0
-388 -373 -88 0
-389 -374 -89 0
-390 -375 -90 0
-391 -376 -88 0
-392 -377 -89 0
-393 -378 -90 0
-394 -379 -88 0
-395 -380 -89 0
-396 -381 -90 0
-397 -382 -88 0
-398 -383 -89 0
-399 -384 -90 0
-400 -385 -88 0
-401 -386 -89 0
-402 -387 -90 0
-403 -388 -88 0
-404 -389 -89 0
-405 -390 -90 0
-406 -391 -88 0
-407 -392 -89 0
-408 -393 -90 0
-409 -394 -88 0
-410 -395 -89 0
-411 -396 -90 0
-412 -397 -88 0
-413 -398 -89 0
-414 -399 -90 0
-415 -400 -88 0
-416 -401 -89 0
-417 -402 -90 0
-418 -403 -88 0
-419 -404 -89 0
-420 -405 -90 0
-421 -406 -88 0
-422 -407 -89 0
-423 -408 -90 0
-424 -409 -88 0
-425 -410 -89 0
-426 -411 -90 0
-427 -412 -88 0
-428 -413 -89 0
-429 -414 -90 0
-430 -415 -88 0
-431 -416 -89 0
-432 -417 -90 0
-433 -418 -88 0
-434 -419 -89 0
-435 -420 -90 0
-436 -421 -88 0
-437 -422 -89 0
-438 -423 -90 0
-439 -424 -88 0
-440 -425 -89 0
-441 -426 -90 0
-442 -427 -88 0
-443 -428 -89 0
-444 -429 -90 0
-445 -430 -88 0
-446 -431 -89 0
-447 -432 -90 0
-448 -433 -88 0
-449 -434 -89 0
-450 -435 -90 0
-451 -436 -88 0
-452 -437 -89 0
-453 -438 -90 0
-454 -439 -88 0
-455 -440 -89 0
-456 -441 -90 0
-457 -442 -88 0
-458 -443 -89 0
-459 -444 -90 0
-460 -445 -88 0
-461 -446 -89 0
-462 -447 -90 0
-463 -448 -88 0
-464 -449 -89 0
-465 -450 -90 0
-466 -451 -88 0
-467 -452 -89 0
-468 -453 -90 0
-469 -454 -88 0
-470 -455 -89 0
-471 -456 -90 0
-472 -457 -88 0
-473 -458 -89 0
-474 -459 -90 0
-475 -460 -88 0
-476 -461 -89 0
-477 -462 -90 0
-478 -463 -88 0
-479 -464 -89 0
-480 -465 -90 0
-481 -466 -88 0
-482 -467 -89 0
-483 -468 -90 0
-484 -469 -88 0
-485 -470 -89 0
-486 -471 -90 0
-487 -472 -88 0
-488 -473 -89 0
-489 -474 -90 0
-490 -475 -88 0
-491 -476 -89 0
-492 -477 -90 0
-493 -478 -88 0
-494 -479 -89 0
-495 -480 -90 0
-496 -481 -88 0
-497 -482 -89 0
-498 -483 -90 0
-499 -484 -88 0
-500 -485 -89 0
-501 -486 -90 0
-502 -487 -88 0
-503 -488 -89 0
-504 -489 -90 0
-505 -490 -88 0
-506 -491 -89 0
-507 -492 -90 0
-508 -493 -88 0
-509 -494 -89 0
-510 -495 -90 0
-511 -496 -88 0
-512 -497 -89 0
-513 -498 -90 0
-514 -499 -88 0
-515 -500 -89 0
-516 -501 -90 0
-517 -502 -88 0
-518 -503 -89 0
-519 -504 -90 0
-520 -505 -88 0
-521 -506 -89 0
-522 -507 -90 0
-523 -508 -88 0
-524 -509 -89 0
-525 -510 -90 0
-526 -511 -88 0
-527 -512 -89 0
-528 -513 -90 0
-529 -514 -88 0
-530 -515 -89 0
-531 -516 -90 0
-532 -517 -88 0
-533 -518 -89 0
-534 -519 -90 0
-535 -520 -88 0
-536 -521 -89 0
-537 -522 -90 0
-538 -523 -88 0
-539 -524 -89 0
-540 -525 -90 0
-541 -526 -88 0
-542 -527 -89 0
-543 -528 -90 0
-544 -529 -88 0
-545 -530 -89 0
-546 -531 -90 0
-547 -532 -88 0
-548 -533 -89 0
-549 -534 -90 0
-550 -535 -88 0
-551 -536 -89 0
-552 -537 -90 0
-553 -538 -88 0
-554 -539 -89 0
-555 -540 -90 0
-556 -541 -88 0
-557 -542 -89 0
-558 -543 -90 0
-559 -544 -88 0
-560 -545 -89 0
-561 -546 -90 0
-562 -547 -88 0
-563 -548 -89 0
-564 -549 -90 0
-565 -550 -88 0
-566 -551 -89 0
-567 -552 -90 0
-568 -553 -88 0
-569 -554 -89 0
-570 -555 -90 0
-571 -556 -88 0
-572 -557 -89 0
-573 -558 -90 0
-574 -559 -88 0
-575 -560 -89 0
-576 -561 -90 0
-577 -562 -88 0
-578 -563 -89 0
-579 -564 -90 0
-580 -565 -88 0
-581 -566 -89 0
-582 -567 -90 0
-583 -568 -88 0
-584 -569 -89 0
-585 -570 -90 0
-586 -571 -88 0
-587 -572 -89 0
-588 -573 -90 0
-589 -574 -88 0
-590 -575 -89 0
-591 -576 -90 0
-592 -577 -88 0
-593 -578 -89 0
-594 -579 -90 0
-595 -580 -88 0
-596 -581 -89 0
-597 -582 -90 0
-598 -583 -88 0
-599 -584 -89 0
-600 -585 -90 0
-601 -586 -88 0
-602 -587 -89 0
-603 -588 -90 0
-604 -589 -88 0
-605 -590 -89 0
-606 -591 -90 0
-607 -592 -88 0
-608 -593 -89 0
-609 -594 -90 0
-610 -595 -88 0
-611 -596 -89 0
-612 -597 -90 0
-613 -598 -88 0
-614 -599 -89 0
-615 -600 -90 0
-616 -601 -88 0
-617 -602 -89 0
-618 -603 -90 0
-619 -604 -88 0
-620 -605 -89 0
-621 -606 -90 0
-622 -607 -88 0
-623 -608 -89 0
-624 -609 -90 0
-625 -610 -88 0
-626 -611 -89 0
-627 -612 -90 0
-628 -613 -88 0
-629 -614 -89 0
-630 -615 -90 0
-631 -616 -88 0
-632 -617 -89 0
-633 -618 -90 0
-634 -619 -88 0
-635 -620 -89 0
-636 -621 -90 0
-637 -622 -88 0
-638 -623 -89 0
-639 -624 -90 0
-640 -625 -88 0
-641 -626 -89 0
-642 -627 -90 0
-643 -628 -88 0
-644 -629 -89 0
-645 -630 -90 0
-646 -631 -88 0
-647 -632 -89 0
-648 -633 -90 0
-106 -19 -1 0
-107 -20 -2 0
-108 -21 -3 0
-106 -22 -4 0
-107 -23 -5 0
-108 -24 -6 0
-106 -25 -7 0
-107 -26 -8 0
-108 -27 -9 0
-106 -28 -10 0
-107 -29 -11 0
-108 -30 -12 0
-106 -31 -13 0
-107 -32 -14 0
-108 -33 -15 0
-106 -34 -16 0
-107 -35 -17 0
-108 -36 -18 0
-106 -37 -19 0
-107 -38 -20 0
-108 -39 -21 0
-106 -40 -22 0
-107 -41 -23 0
-108 -42 -24 0
-106 -43 -25 0
-107 -44 -26 0
-108 -45 -27 0
-106 -46 -28 0
-107 -47 -29 0
-108 -48 -30 0
-106 -49 -31 0
-107 -50 -32 0
-108 -51 -33 0
-106 -52 -34 0
-107 -53 -35 0
-108 -54 -36 0
-106 -55 -37 0
-107 -56 -38 0
-108 -57 -39 0
-106 -58 -40 0
-107 -59 -41 0
-108 -60 -42 0
-106 -61 -43 0
-107 -62 -44 0
-108 -63 -45 0
-106 -64 -46 0
-107 -65 -47 0
-108 -66 -48 0
-106 -67 -49 0
-107 -68 -50 0
-108 -69 -51 0
-106 -70 -52 0
-107 -71 -53 0
-108 -72 -54 0
-106 -73 -55 0
-107 -74 -56 0
-108 -75 -57 0
-106 -76 -58 0
-107 -77 -59 0
-108 -78 -60 0
-106 -79 -61 0
-107 -80 -62 0
-108 -81 -63 0
-106 -82 -64 0
-107 -83 -65 0
-108 -84 -66 0
-106 -85 -67 0
-107 -86 -68 0
-108 -87 -69 0
-106 -88 -70 0
-107 -89 -71 0
-108 -90 -72 0
-106 -91 -73 0
-107 -92 -74 0
-108 -93 -75 0
-106 -94 -76 0
-107 -95 -77 0
-108 -96 -78 0
-106 -97 -79 0
-107 -98 -80 0
-108 -99 -81 0
-106 -100 -82 0
-107 -101 -83 0
-108 -102 -84 0
-106 -103 -85 0
-107 -104 -86 0
-108 -105 -87 0
-106 -88 0
-107 -89 0
-108 -90 0
-109 -106 -91 0
-110 -107 -92 0
-111 -108 -93 0
-112 -106 -94 0
-113 -107 -95 0
-114 -108 -96 0
-115 -106 -97 0
-116 -107 -98 0
-117 -108 -99 0
-118 -106 -100 0
-119 -107 -101 0
-120 -108 -102 0
-121 -106 -103 0
-122 -107 -104 0
-123 -108 -105 0
-124 -106 0
-125 -107 0
-126 -108 0
-127 -109 -106 0
-128 -110 -107 0
-129 -111 -108 0
-130 -112 -106 0
-131 -113 -107 0
-132 -114 -108 0
-133 -115 -106 0
-134 -116 -107 0
-135 -117 -108 0
-136 -118 -106 0
-137 -119 -107 0
-138 -120 -108 0
-139 -121 -106 0
-140 -122 -107 0
-141 -123 -108 0
-142 -124 -106 0
-143 -125 -107 0
-144 -126 -108 0
-145 -127 -106 0
-146 -128 -107 0
-147 -129 -108 0
-148 -130 -106 0
-149 -131 -107 0
-150 -132 -108 0
-151 -133 -106 0
-152 -134 -107 0
-153 -135 -108 0
-154 -136 -106 0
-155 -137 -107 0
-156 -138 -108 0
-157 -139 -106 0
-158 -140 -107 0
-159 -141 -108 0
-160 -142 -106 0
-161 -143 -107 0
-162 -144 -108 0
-163 -145 -106 0
-164 -146 -107 0
-165 -147 -108 0
-166 -148 -106 0
-167 -149 -107 0
-168 -150 -108 0
-169 -151 -106 0
-170 -152 -107 0
-171 -153 -108 0
-172 -154 -106 0
-173 -155 -107 0
-174 -156 -108 0
-175 -157 -106 0
-176 -158 -107 0
-177 -159 -108 0
-178 -160 -106 0
-179 -161 -107 0
-180 -162 -108 0
-181 -163 -106 0
-182 -164 -107 0
-183 -165 -108 0
-184 -166 -106 0
-185 -167 -107 0
-186 -168 -108 0
-187 -169 -106 0
-188 -170 -107 0
-189 -171 -108 0
-190 -172 -106 0
-191 -173 -107 0
-192 -174 -108 0
-193 -175 -106 0
-194 -176 -107 0
-195 -177 -108 0
-196 -178 -106 0
-197 -179 -107 0
-198 -180 -108 0
-199 -181 -106 0
-200 -182 -107 0
-201 -183 -108 0
-202 -184 -106 0
-203 -185 -107 0
-204 -186 -108 0
-205 -187 -106 0
-206 -188 -107 0
-207 -189 -108 0
-208 -190 -106 0
-209 -191 -107 0
-210 -192 -108 0
-211 -193 -106 0
-212 -194 -107 0
-213 -195 -108 0
-214 -196 -106 0
-215 -197 -107 0
-216 -198 -108 0
-217 -199 -106 0
-218 -200 -107 0
-219 -201 -108 0
-220 -202 -106 0
-221 -203 -107 0
-222 -204 -108 0
-223 -205 -106 0
-224 -206 -107 0
-225 -207 -108 0
-226 -208 -106 0
-227 -209 -107 0
-228 -210 -108 0
-229 -211 -106 0
-230 -212 -107 0
-231 -213 -108 0
-232 -214 -106 0
-233 -215 -107 0
-234 -216 -108 0
-235 -217 -106 0
-236 -218 -107 0
-237 -219 -108 0
-238 -220 -106 0
-239 -221 -107 0
-240 -222 -108 0
-241 -223 -106 0
-242 -224 -107 0
-243 -225 -108 0
-244 -226 -106 0
-245 -227 -107 0
-246 -228 -108 0
-247 -229 -106 0
-248 -230 -107 0
-249 -231 -108 0
-250 -232 -106 0
-251 -233 -107 0
-252 -234 -108 0
-253 -235 -106 0
-254 -236 -107 0
-255 -237 -108 0
-256 -238 -106 0
-257 -239 -107 0
-258 -240 -108 0
-259 -241 -106 0
-260 -242 -107 0
-261 -243 -108 0
-262 -244 -106 0
-263 -245 -107 0
-264 -246 -108 0
-265 -247 -106 0
-266 -248 -107 0
-267 -249 -108 0
-268 -250 -106 0
-269 -251 -107 0
-270 -252 -108 0
-271 -253 -106 0
-272 -254 -107 0
-273 -255 -108 0
-274 -256 -106 0
-275 -257 -107 0
-276 -258 -108 0
-277 -259 -106 0
-278 -260 -107 0
-279 -261 -108 0
-280 -262 -106 0
-281 -263 -107 0
-282 -264 -108 0
-283 -265 -106 0
-284 -266 -107 0
-285 -267 -108 0
-286 -268 -106 0
-287 -269 -107 0
-288 -270 -108 0
-289 -271 -106 0
-290 -272 -107 0
-291 -273 -108 0
-292 -274 -106 0
-293 -275 -107 0
-294 -276 -108 0
-295 -277 -106 0
-296 -278 -107 0
-297 -279 -108 0
-298 -280 -106 0
-299 -281 -107 0
-300 -282 -108 0
-301 -283 -106 0
-302 -284 -107 0
-303 -285 -108 0
-304 -286 -106 0
-305 -287 -107 0
-306 -288 -108 0
-307 -289 -106 0
-308 -290 -107 0
-309 -291 -108 0
-310 -292 -106 0
-311 -293 -107 0
-312 -294 -108 0
-313 -295 -106 0
-314 -296 -107 0
-315 -297 -108 0
-316 -298 -106 0
-317 -299 -107 0
-318 -300 -108 0
-319 -301 -106 0
-320 -302 -107 0
-321 -303 -108 0
-322 -304 -106 0
-323 -305 -107 0
-324 -306 -108 0
-325 -307 -106 0
-326 -308 -107 0
-327 -309 -108 0
-328 -310 -106 0
-329 -311 -107 0
-330 -312 -108 0
-331 -313 -106 0
-332 -314 -107 0
-333 -315 -108 0
-334 -316 -106 0
-335 -317 -107 0
-336 -318 -108 0
-337 -319 -106 0
-338 -320 -107 0
-339 -321 -108 0
-340 -322 -106 0
-341 -323 -107 0
-342 -324 -108 0
-343 -325 -106 0
-344 -326 -107 0
-345 -327 -108 0
-346 -328 -106 0
-347 -329 -107 0
-348 -330 -108 0
-349 -331 -106 0
-350 -332 -107 0
-351 -333 -108 0
-352 -334 -106 0
-353 -335 -107 0
-354 -336 -108 0
-355 -337 -106 0
-356 -338 -107 0
-357 -339 -108 0
-358 -340 -106 0
-359 -341 -107 0
-360 -342 -108 0
-361 -343 -106 0
-362 -344 -107 0
-363 -345 -108 0
-364 -346 -106 0
-365 -347 -107 0
-366 -348 -108 0
-367 -349 -106 0
-368 -350 -107 0
-369 -351 -108 0
-370 -352 -106 0
-371 -353 -107 0
-372 -354 -108 0
-373 -355 -106 0
-374 -356 -107 0
-375 -357 -108 0
-376 -358 -106 0
-377 -359 -107 0
-378 -360 -108 0
-379 -361 -106 0
-380 -362 -107 0
-381 -363 -108 0
-382 -364 -106 0
-383 -365 -107 0
-384 -366 -108 0
-385 -367 -106 0
-386 -368 -107 0
-387 -369 -108 0
-388 -370 -106 0
-389 -371 -107 0
-390 -372 -108 0
-391 -373 -106 0
-392 -374 -107 0
-393 -375 -108 0
-394 -376 -106 0
-395 -377 -107 0
-396 -378 -108 0
-397 -379 -106 0
-398 -380 -107 0
-399 -381 -108 0
-400 -382 -106 0
-401 -383 -107 0
-402 -384 -108 0
-403 -385 -106 0
-404 -386 -107 0
-405 -387 -108 0
-406 -388 -106 0
-407 -389 -107 0
-408 -390 -108 0
-409 -391 -106 0
-410 -392 -107 0
-411 -393 -108 0
-412 -394 -106 0
-413 -395 -107 0
-414 -396 -108 0
-415 -397 -106 0
-416 -398 -107 0
-417 -399 -108 0
-418 -400 -106 0
-419 -401 -107 0
-420 -402 -108 0
-421 -403 -106 0
-422 -404 -107 0
-423 -405 -108 0
-424 -406 -106 0
-425 -407 -107 0
-426 -408 -108 0
-427 -409 -106 0
-428 -410 -107 0
-429 -411 -108 0
-430 -412 -106 0
-431 -413 -107 0
-432 -414 -108 0
-433 -415 -106 0
-434 -416 -107 0
-435 -417 -108 0
-436 -418 -106 0
-437 -419 -107 0
-438 -420 -108 0
-439 -421 -106 0
-440 -422 -107 0
-441 -423 -108 0
-442 -424 -106 0
-443 -425 -107 0
-444 -426 -108 0
-445 -427 -106 0
-446 -428 -107 0
-447 -429 -108 0
-448 -430 -106 0
-449 -431 -107 0
-450 -432 -108 0
-451 -433 -106 0
-452 -434 -107 0
-453 -435 -108 0
-454 -436 -106 0
-455 -437 -107 0
-456 -438 -108 0
-457 -439 -106 0
-458 -440 -107 0
-459 -441 -108 0
-460 -442 -106 0
-461 -443 -107 0
-462 -444 -108 0
-463 -445 -106 0
-464 -446 -107 0
-465 -447 -108 0
-466 -448 -106 0
-467 -449 -107 0
-468 -450 -108 0
-469 -451 -106 0
-470 -452 -107 0
-471 -453 -108 0
-472 -454 -106 0
-473 -455 -107 0
-474 -456 -108 0
-475 -457 -106 0
-476 -458 -107 0
-477 -459 -108 0
-478 -460 -106 0
-479 -461 -107 0
-480 -462 -108 0
-481 -463 -106 0
-482 -464 -107 0
-483 -465 -108 0
-484 -466 -106 0
-485 -467 -107 0
-486 -468 -108 0
-487 -469 -106 0
-488 -470 -107 0
-489 -471 -108 0
-490 -472 -106 0
-491 -473 -107 0
-492 -474 -108 0
-493 -475 -106 0
-494 -476 -107 0
-495 -477 -108 0
-496 -478 -106 0
-497 -479 -107 0
-498 -480 -108 0
-499 -481 -106 0
-500 -482 -107 0
-501 -483 -108 0
-502 -484 -106 0
-503 -485 -107 0
-504 -486 -108 0
-505 -487 -106 0
-506 -488 -107 0
-507 -489 -108 0
-508 -490 -106 0
-509 -491 -107 0
-510 -492 -108 0
-511 -493 -106 0
-512 -494 -107 0
-513 -495 -108 0
-514 -496 -106 0
-515 -497 -107 0
-516 -498 -108 0
-517 -499 -106 0
-518 -500 -107 0
-519 -501 -108 0
-520 -502 -106 0
-521 -503 -107 0
-522 -504 -108 0
-523 -505 -106 0
-524 -506 -107 0
-525 -507 -108 0
-526 -508 -106 0
-527 -509 -107 0
-528 -510 -108 0
-529 -511 -106 0
-530 -512 -107 0
-531 -513 -108 0
-532 -514 -106 0
-533 -515 -107 0
-534 -516 -108 0
-535 -517 -106 0
-536 -518 -107 0
-537 -519 -108 0
-538 -520 -106 0
-539 -521 -107 0
-540 -522 -108 0
-541 -523 -106 0
-542 -524 -107 0
-543 -525 -108 0
-544 -526 -106 0
-545 -527 -107 0
-546 -528 -108 0
-547 -529 -106 0
-548 -530 -107 0
-549 -531 -108 0
-550 -532 -106 0
-551 -533 -107 0
-552 -534 -108 0
-553 -535 -106 0
-554 -536 -107 0
-555 -537 -108 0
-556 -538 -106 0
-557 -539 -107 0
-558 -540 -108 0
-559 -541 -106 0
-560 -542 -107 0
-561 -543 -108 0
-562 -544 -106 0
-563 -545 -107 0
-564 -546 -108 0
-565 -547 -106 0
-566 -548 -107 0
-567 -549 -108 0
-568 -550 -106 0
-569 -551 -107 0
-570 -552 -108 0
-571 -553 -106 0
-572 -554 -107 0
-573 -555 -108 0
-574 -556 -106 0
-575 -557 -107 0
-576 -558 -108 0
-577 -559 -106 0
-578 -560 -107 0
-579 -561 -108 0
-580 -562 -106 0
-581 -563 -107 0
-582 -564 -108 0
-583 -565 -106 0
-584 -566 -107 0
-585 -567 -108 0
-586 -568 -106 0
-587 -569 -107 0
-588 -570 -108 0
-589 -571 -106 0
-590 -572 -107 0
-591 -573 -108 0
-592 -574 -106 0
-593 -575 -107 0
-594 -576 -108 0
-595 -577 -106 0
-596 -578 -107 0
-597 -579 -108 0
-598 -580 -106 0
-599 -581 -107 0
-600 -582 -108 0
-601 -583 -106 0
-602 -584 -107 0
-603 -585 -108 0
-604 -586 -106 0
-605 -587 -107 0
-606 -588 -108 0
-607 -589 -106 0
-608 -590 -107 0
-609 -591 -108 0
-610 -592 -106 0
-611 -593 -107 0
-612 -594 -108 0
-613 -595 -106 0
-614 -596 -107 0
-615 -597 -108 0
-616 -598 -106 0
-617 -599 -107 0
-618 -600 -108 0
-619 -601 -106 0
-620 -602 -107 0
-621 -603 -108 0
-622 -604 -106 0
-623 -605 -107 0
-624 -606 -108 0
-625 -607 -106 0
-626 -608 -107 0
-627 -609 -108 0
-628 -610 -106 0
-629 -611 -107 0
-630 -612 -108 0
-631 -613 -106 0
-632 -614 -107 0
-633 -615 -108 0
-634 -616 -106 0
-635 -617 -107 0
-636 -618 -108 0
-637 -619 -106 0
-638 -620 -107 0
-639 -621 -108 0
-640 -622 -106 0
-641 -623 -107 0
-642 -624 -108 0
-643 -625 -106 0
-644 -626 -107 0
-645 -627 -108 0
-646 -628 -106 0
-647 -629 -107 0
-648 -630 -108 0
-124 -22 -1 0
-125 -23 -2 0
-126 -24 -3 0
-124 -25 -4 0
-125 -26 -5 0
-126 -27 -6 0
-124 -28 -7 0
-125 -29 -8 0
-126 -30 -9 0
-124 -31 -10 0
-125 -32 -11 0
-126 -33 -12 0
-124 -34 -13 0
-125 -35 -14 0
-126 -36 -15 0
-124 -37 -16 0
-125 -38 -17 0
-126 -39 -18 0
-124 -40 -19 0
-125 -41 -20 0
-126 -42 -21 0
-124 -43 -22 0
-125 -44 -23 0
-126 -45 -24 0
-124 -46 -25 0
-125 -47 -26 0
-126 -48 -27 0
-124 -49 -28 0
-125 -50 -29 0
-126 -51 -30 0
-124 -52 -31 0
-125 -53 -32 0
-126 -54 -33 0
-124 -55 -34 0
-125 -56 -35 0
-126 -57 -36 0
-124 -58 -37 0
-125 -59 -38 0
-126 -60 -39 0
-124 -61 -40 0
-125 -62 -41 0
-126 -63 -42 0
-124 -64 -43 0
-125 -65 -44 0
-126 -66 -45 0
-124 -67 -46 0
-125 -68 -47 0
-126 -69 -48 0
-124 -70 -49 0
-125 -71 -50 0
-126 -72 -51 0
-124 -73 -52 0
-125 -74 -53 0
-126 -75 -54 0
-124 -76 -55 0
-125 -77 -56 0
-126 -78 -57 0
-124 -79 -58 0
-125 -80 -59 0
-126 -81 -60 0
-124 -82 -61 0
-125 -83 -62 0
-126 -84 -63 0
-124 -85 -64 0
-125 -86 -65 0
-126 -87 -66 0
-124 -88 -67 0
-125 -89 -68 0
-126 -90 -69 0
-124 -91 -70 0
-125 -92 -71 0
-126 -93 -72 0
-124 -94 -73 0
-125 -95 -74 0
-126 -96 -75 0
-124 -97 -76 0
-125 -98 -77 0
-126 -99 -78 0
-124 -100 -79 0
-125 -101 -80 0
-126 -102 -81 0
-124 -103 -82 0
-125 -104 -83 0
-126 -105 -84 0
-124 -106 -85 0
-125 -107 -86 0
-126 -108 -87 0
-124 -109 -88 0
-125 -110 -89 0
-126 -111 -90 0
-124 -112 -91 0
-125 -113 -92 0
-126 -114 -93 0
-124 -115 -94 0
-125 -116 -95 0
-126 -117 -96 0
-124 -118 -97 0
-125 -119 -98 0
-126 -120 -99 0
-124 -121 -100 0
-125 -122 -101 0
-126 -123 -102 0
-124 -103 0
-125 -104 0
-126 -105 0
-127 -124 -106 0
-128 -125 -107 0
-129 -126 -108 0
-130 -124 -109 0
-131 -125 -110 0
-132 -126 -111 0
-133 -124 -112 0
-134 -125 -113 0
-135 -126 -114 0
-136 -124 -115 0
-137 -125 -116 0
-138 -126 -117 0
-139 -124 -118 0
-140 -125 -119 0
-141 -126 -120 0
-142 -124 -121 0
-143 -125 -122 0
-144 -126 -123 0
-145 -124 0
-146 -125 0
-147 -126 0
-148 -127 -124 0
-149 -128 -125 0
-150 -129 -126 0
-151 -130 -124 0
-152 -131 -125 0
-153 -132 -126 0
-154 -133 -124 0
-155 -134 -125 0
-156 -135 -126 0
-157 -136 -124 0
-158 -137 -125 0
-159 -138 -126 0
-160 -139 -124 0
-161 -140 -125 0
-162 -141 -126 0
-163 -142 -124 0
-164 -143 -125 0
-165 -144 -126 0
-166 -145 -124 0
-167 -146 -125 0
-168 -147 -126 0
-169 -148 -124 0
-170 -149 -125 0
-171 -150 -126 0
-172 -151 -124 0
-173 -152 -125 0
-174 -153 -126 0
-175 -154 -124 0
-176 -155 -125 0
-177 -156 -126 0
-178 -157 -124 0
-179 -158 -125 0
-180 -159 -126 0
-181 -160 -124 0
-182 -161 -125 0
-183 -162 -126 0
-184 -163 -124 0
-185 -164 -125 0
-186 -165 -126 0
-187 -166 -124 0
-188 -167 -125 0
-189 -168 -126 0
-190 -169 -124 0
-191 -170 -125 0
-192 -171 -126 0
-193 -172 -124 0
-194 -173 -125 0
-195 -174 -126 0
-196 -175 -124 0
-197 -176 -125 0
-198 -177 -126 0
-199 -178 -124 0
-200 -179 -125 0
-201 -180 -126 0
-202 -181 -124 0
-203 -182 -125 0
-204 -183 -126 0
-205 -184 -124 0
-206 -185 -125 0
-207 -186 -126 0
-208 -187 -124 0
-209 -188 -125 0
-210 -189 -126 0
-211 -190 -124 0
-212 -191 -125 0
-213 -192 -126 0
-214 -193 -124 0
-215 -194 -125 0
-216 -195 -126 0
-217 -196 -124 0
-218 -197 -125 0
-219 -198 -126 0
-220 -199 -124 0
-221 -200 -125 0
-222 -201 -126 0
-223 -202 -124 0
-224 -203 -125 0
-225 -204 -126 0
-226 -205 -124 0
-227 -206 -125 0
-228 -207 -126 0
-229 -208 -124 0
-230 -209 -125 0
-231 -210 -126 0
-232 -211 -124 0
-233 -212 -125 0
-234 -213 -126 0
-235 -214 -124 0
-236 -215 -125 0
-237 -216 -126 0
-238 -217 -124 0
-239 -218 -125 0
-240 -219 -126 0
-241 -220 -124 0
-242 -221 -125 0
-243 -222 -126 0
-244 -223 -124 0
-245 -224 -125 0
-246 -225 -126 0
-247 -226 -124 0
-248 -227 -125 0
-249 -228 -126 0
-250 -229 -124 0
-251 -230 -125 0
-252 -231 -126 0
-253 -232 -124 0
-254 -233 -125 0
-255 -234 -126 0
-256 -235 -124 0
-257 -236 -125 0
-258 -237 -126 0
-259 -238 -124 0
-260 -239 -125 0
-261 -240 -126 0
-262 -241 -124 0
-263 -242 -125 0
-264 -243 -126 0
-265 -244 -124 0
-266 -245 -125 0
-267 -246 -126 0
-268 -247 -124 0
-269 -248 -125 0
-270 -249 -126 0
-271 -250 -124 0
-272 -251 -125 0
-273 -252 -126 0
-274 -253 -124 0
-275 -254 -125 0
-276 -255 -126 0
-277 -256 -124 0
-278 -257 -125 0
-279 -258 -126 0
-280 -259 -124 0
-281 -260 -125 0
-282 -261 -126 0
-283 -262 -124 0
-284 -263 -125 0
-285 -264 -126 0
-286 -265 -124 0
-287 -266 -125 0
-288 -267 -126 0
-289 -268 -124 0
-290 -269 -125 0
-291 -270 -126 0
-292 -271 -124 0
-293 -272 -125 0
-294 -273 -126 0
-295 -274 -124 0
-296 -275 -125 0
-297 -276 -126 0
-298 -277 -124 0
-299 -278 -125 0
-300 -279 -126 0
-301 -280 -124 0
-302 -281 -125 0
-303 -282 -126 0
-304 -283 -124 0
-305 -284 -125 0
-306 -285 -126 0
-307 -286 -124 0
-308 -287 -125 0
-309 -288 -126 0
-310 -289 -124 0
-311 -290 -125 0
-312 -291 -126 0
-313 -292 -124 0
-314 -293 -125 0
-315 -294 -126 0
-316 -295 -124 0
-317 -296 -125 0
-318 -297 -126 0
-319 -298 -124 0
-320 -299 -125 0
-321 -300 -126 0
-322 -301 -124 0
-323 -302 -125 0
-324 -303 -126 0
-325 -304 -124 0
-326 -305 -125 0
-327 -306 -126 0
-328 -307 -124 0
-329 -308 -125 0
-330 -309 -126 0
-331 -310 -124 0
-332 -311 -125 0
-333 -312 -126 0
-334 -313 -124 0
-335 -314 -125 0
-336 -315 -126 0
-337 -316 -124 0
-338 -317 -125 0
-339 -318 -126 0
-340 -319 -124 0
-341 -320 -125 0
-342 -321 -126 0
-343 -322 -124 0
-344 -323 -125 0
-345 -324 -126 0
-346 -325 -124 0
-347 -326 -125 0
-348 -327 -126 0
-349 -328 -124 0
-350 -329 -125 0
-351 -330 -126 0
-352 -331 -124 0
-353 -332 -125 0
-354 -333 -126 0
-355 -334 -124 0
-356 -335 -125 0
-357 -336 -126 0
-358 -337 -124 0
-359 -338 -125 0
-360 -339 -126 0
-361 -340 -124 0
-362 -341 -125 0
-363 -342 -126 0
-364 -343 -124 0
-365 -344 -125 0
-366 -345 -126 0
-367 -346 -124 0
-368 -347 -125 0
-369 -348 -126 0
-370 -349 -124 0
-371 -350 -125 0
-372 -351 -126 0
-373 -352 -124 0
-374 -353 -125 0
-375 -354 -126 0
-376 -355 -124 0
-377 -356 -125 0
-378 -357 -126 0
-379 -358 -124 0
-380 -359 -125 0
-381 -360 -126 0
-382 -361 -124 0
-383 -362 -125 0
-384 -363 -126 0
-385 -364 -124 0
-386 -365 -125 0
-387 -366 -126 0
-388 -367 -124 0
-389 -368 -125 0
-390 -369 -126 0
-391 -370 -124 0
-392 -371 -125 0
-393 -372 -126 0
-394 -373 -124 0
-395 -374 -125 0
-396 -375 -126 0
-397 -376 -124 0
-398 -377 -125 0
-399 -378 -126 0
-400 -379 -124 0
-401 -380 -125 0
-402 -381 -126 0
-403 -382 -124 0
-404 -383 -125 0
-405 -384 -126 0
-406 -385 -124 0
-407 -386 -125 0
-408 -387 -126 0
-409 -388 -124 0
-410 -389 -125 0
-411 -390 -126 0
-412 -391 -124 0
-413 -392 -125 0
-414 -393 -126 0
-415 -394 -124 0
-416 -395 -125 0
-417 -396 -126 0
-418 -397 -124 0
-419 -398 -125 0
-420 -399 -126 0
-421 -400 -124 0
-422 -401 -125 0
-423 -402 -126 0
-424 -403 -124 0
-425 -404 -125 0
-426 -405 -126 0
-427 -406 -124 0
-428 -407 -125 0
-429 -408 -126 0
-430 -409 -124 0
-431 -410 -125 0
-432 -411 -126 0
-433 -412 -124 0
-434 -413 -125 0
-435 -414 -126 0
-436 -415 -124 0
-437 -416 -125 0
-438 -417 -126 0
-439 -418 -124 0
-440 -419 -125 0
-441 -420 -126 0
-442 -421 -124 0
-443 -422 -125 0
-444 -423 -126 0
-445 -424 -124 0
-446 -425 -125 0
-447 -426 -126 0
-448 -427 -124 0
-449 -428 -125 0
-450 -429 -126 0
-451 -430 -124 0
-452 -431 -125 0
-453 -432 -126 0
-454 -433 -124 0
-455 -434 -125 0
-456 -435 -126 0
-457 -436 -124 0
-458 -437 -125 0
-459 -438 -126 0
-460 -439 -124 0
-461 -440 -125 0
-462 -441 -126 0
-463 -442 -124 0
-464 -443 -125 0
-465 -444 -126 0
-466 -445 -124 0
-467 -446 -125 0
-468 -447 -126 0
-469 -448 -124 0
-470 -449 -125 0
-471 -450 -126 0
-472 -451 -124 0
-473 -452 -125 0
-474 -453 -126 0
-475 -454 -124 0
-476 -455 -125 0
-477 -456 -126 0
-478 -457 -124 0
-479 -458 -125 0
-480 -459 -126 0
-481 -460 -124 0
-482 -461 -125 0
-483 -462 -126 0
-484 -463 -124 0
-485 -464 -125 0
-486 -465 -126 0
-487 -466 -124 0
-488 -467 -125 0
-489 -468 -126 0
-490 -469 -124 0
-491 -470 -125 0
-492 -471 -126 0
-493 -472 -124 0
-494 -473 -125 0
-495 -474 -126 0
-496 -475 -124 0
-497 -476 -125 0
-498 -477 -126 0
-499 -478 -124 0
-500 -479 -125 0
-501 -480 -126 0
-502 -481 -124 0
-503 -482 -125 0
-504 -483 -126 0
-505 -484 -124 0
-506 -485 -125 0
-507 -486 -126 0
-508 -487 -124 0
-509 -488 -125 0
-510 -489 -126 0
-511 -490 -124 0
-512 -491 -125 0
-513 -492 -126 0
-514 -493 -124 0
-515 -494 -125 0
-516 -495 -126 0
-517 -496 -124 0
-518 -497 -125 0
-519 -498 -126 0
-520 -499 -124 0
-521 -500 -125 0
-522 -501 -126 0
-523 -502 -124 0
-524 -503 -125 0
-525 -504 -126 0
-526 -505 -124 0
-527 -506 -125 0
-528 -507 -126 0
-529 -508 -124 0
-530 -509 -125 0
-531 -510 -126 0
-532 -511 -124 0
-533 -512 -125 0
-534 -513 -126 0
-535 -514 -124 0
-536 -515 -125 0
-537 -516 -126 0
-538 -517 -124 0
-539 -518 -125 0
-540 -519 -126 0
-541 -520 -124 0
-542 -521 -125 0
-543 -522 -126 0
-544 -523 -124 0
-545 -524 -125 0
-546 -525 -126 0
-547 -526 -124 0
-548 -527 -125 0
-549 -528 -126 0
-550 -529 -124 0
-551 -530 -125 0
-552 -531 -126 0
-553 -532 -124 0
-554 -533 -125 0
-555 -534 -126 0
-556 -535 -124 0
-557 -536 -125 0
-558 -537 -126 0
-559 -538 -124 0
-560 -539 -125 0
-561 -540 -126 0
-562 -541 -124 0
-563 -542 -125 0
-564 -543 -126 0
-565 -544 -124 0
-566 -545 -125 0
-567 -546 -126 0
-568 -547 -124 0
-569 -548 -125 0
-570 -549 -126 0
-571 -550 -124 0
-572 -551 -125 0
-573 -552 -126 0
-574 -553 -124 0
-575 -554 -125 0
-576 -555 -126 0
-577 -556 -124 0
-578 -557 -125 0
-579 -558 -126 0
-580 -559 -124 0
-581 -560 -125 0
-582 -561 -126 0
-583 -562 -124 0
-584 -563 -125 0
-585 -564 -126 0
-586 -565 -124 0
-587 -566 -125 0
-588 -567 -126 0
-589 -568 -124 0
-590 -569 -125 0
-591 -570 -126 0
-592 -571 -124 0
-593 -572 -125 0
-594 -573 -126 0
-595 -574 -124 0
-596 -575 -125 0
-597 -576 -126 0
-598 -577 -124 0
-599 -578 -125 0
-600 -579 -126 0
-601 -580 -124 0
-602 -581 -125 0
-603 -582 -126 0
-604 -583 -124 0
-605 -584 -125 0
-606 -585 -126 0
-607 -586 -124 0
-608 -587 -125 0
-609 -588 -126 0
-610 -589 -124 0
-611 -590 -125 0
-612 -591 -126 0
-613 -592 -124 0
-614 -593 -125 0
-615 -594 -126 0
-616 -595 -124 0
-617 -596 -125 0
-618 -597 -126 0
-619 -598 -124 0
-620 -599 -125 0
-621 -600 -126 0
-622 -601 -124 0
-623 -602 -125 0
-624 -603 -126 0
-625 -604 -124 0
-626 -605 -125 0
-627 -606 -126 0
-628 -607 -124 0
-629 -608 -125 0
-630 -609 -126 0
-631 -610 -124 0
-632 -611 -125 0
-633 -612 -126 0
-634 -613 -124 0
-635 -614 -125 0
-636 -615 -126 0
-637 -616 -124 0
-638 -617 -125 0
-639 -618 -126 0
-640 -619 -124 0
-641 -620 -125 0
-642 -621 -126 0
-643 -622 -124 0
-644 -623 -125 0
-645 -624 -126 0
-646 -625 -124 0
-647 -626 -125 0
-648 -627 -126 0
-142 -25 -1 0
-143 -26 -2 0
-144 -27 -3 0
-142 -28 -4 0
-143 -29 -5 0
-144 -30 -6 0
-142 -31 -7 0
-143 -32 -8 0
-144 -33 -9 0
-142 -34 -10 0
-143 -35 -11 0
-144 -36 -12 0
-142 -37 -13 0
-143 -38 -14 0
-144 -39 -15 0
-142 -40 -16 0
-143 -41 -17 0
-144 -42 -18 0
-142 -43 -19 0
-143 -44 -20 0
-144 -45 -21 0
-142 -46 -22 0
-143 -47 -23 0
-144 -48 -24 0
-142 -49 -25 0
-143 -50 -26 0
-144 -51 -27 0
-142 -52 -28 0
-143 -53 -29 0
-144 -54 -30 0
-142 -55 -31 0
-143 -56 -32 0
-144 -57 -33 0
-142 -58 -34 0
-143 -59 -35 0
-144 -60 -36 0
-142 -61 -37 0
-143 -62 -38 0
-144 -63 -39 0
-142 -64 -40 0
-143 -65 -41 0
-144 -66 -42 0
-142 -67 -43 0
-143 -68 -44 0
-144 -69 -45 0
-142 -70 -46 0
-143 -71 -47 0
-144 -72 -48 0
-142 -73 -49 0
-143 -74 -50 0
-144 -75 -51 0
-142 -76 -52 0
-143 -77 -53 0
-144 -78 -54 0
-142 -79 -55 0
-143 -80 -56 0
-144 -81 -57 0
-142 -82 -58 0
-143 -83 -59 0
-144 -84 -60 0
-142 -85 -61 0
-143 -86 -62 0
-144 -87 -63 0
-142 -88 -64 0
-143 -89 -65 0
-144 -90 -66 0
-142 -91 -67 0
-143 -92 -68 0
-144 -93 -69 0
-142 -94 -70 0
-143 -95 -71 0
-144 -96 -72 0
-142 -97 -73 0
-143 -98 -74 0
-144 -99 -75 0
-142 -100 -76 0
-143 -101 -77 0
-144 -102 -78 0
-142 -103 -79 0
-143 -104 -80 0
-144 -105 -81 0
-142 -106 -82 0
-143 -107 -83 0
-144 -108 -84 0
-142 -109 -85 0
-143 -110 -86 0
-144 -111 -87 0
-142 -112 -88 0
-143 -113 -89 0
-144 -114 -90 0
-142 -115 -91 0
-143 -116 -92 0
-144 -117 -93 0
-142 -118 -94 0
-143 -119 -95 0
-144 -120 -96 0
-142 -121 -97 0
-143 -122 -98 0
-144 -123 -99 0
-142 -124 -100 0
-143 -125 -101 0
-144 -126 -102 0
-142 -127 -103 0
-143 -128 -104 0
-144 -129 -105 0
-142 -130 -106 0
-143 -131 -107 0
-144 -132 -108 0
-142 -133 -109 0
-143 -134 -110 0
-144 -135 -111 0
-142 -136 -112 0
-143 -137 -113 0
-144 -138 -114 0
-142 -139 -115 0
-143 -140 -116 0
-144 -141 -117 0
-142 -118 0
-143 -119 0
-144 -120 0
-145 -142 -121 0
-146 -143 -122 0
-147 -144 -123 0
-148 -142 -124 0
-149 -143 -125 0
-150 -144 -126 0
-151 -142 -127 0
-152 -143 -128 0
-153 -144 -129 0
-154 -142 -130 0
-155 -143 -131 0
-156 -144 -132 0
-157 -142 -133 0
-158 -143 -134 0
-159 -144 -135 0
-160 -142 -136 0
-161 -143 -137 0
-162 -144 -138 0
-163 -142 -139 0
-164 -143 -140 0
-165 -144 -141 0
-166 -142 0
-167 -143 0
-168 -144 0
-169 -145 -142 0
-170 -146 -143 0
-171 -147 -144 0
-172 -148 -142 0
-173 -149 -143 0
-174 -150 -144 0
-175 -151 -142 0
-176 -152 -143 0
-177 -153 -144 0
-178 -154 -142 0
-179 -155 -143 0
-180 -156 -144 0
-181 -157 -142 0
-182 -158 -143 0
-183 -159 -144 0
-184 -160 -142 0
-185 -161 -143 0
-186 -162 -144 0
-187 -163 -142 0
-188 -164 -143 0
-189 -165 -144 0
-190 -166 -142 0
-191 -167 -143 0
-192 -168 -144 0
-193 -169 -142 0
-194 -170 -143 0
-195 -171 -144 0
-196 -172 -142 0
-197 -173 -143 0
-198 -174 -144 0
-199 -175 -142 0
-200 -176 -143 0
-201 -177 -144 0
-202 -178 -142 0
-203 -179 -143 0
-204 -180 -144 0
-205 -181 -142 0
-206 -182 -143 0
-207 -183 -144 0
-208 -184 -142 0
-209 -185 -143 0
-210 -186 -144 0
-211 -187 -142 0
-212 -188 -143 0
-213 -189 -144 0
-214 -190 -142 0
-215 -191 -143 0
-216 -192 -144 0
-217 -193 -142 0
-218 -194 -143 0
-219 -195 -144 0
-220 -196 -142 0
-221 -197 -143 0
-222 -198 -144 0
-223 -199 -142 0
-224 -200 -143 0
-225 -201 -144 0
-226 -202 -142 0
-227 -203 -143 0
-228 -204 -144 0
-229 -205 -142 0
-230 -206 -143 0
-231 -207 -144 0
-232 -208 -142 0
-233 -209 -143 0
-234 -210 -144 0
-235 -211 -142 0
-236 -212 -143 0
-237 -213 -144 0
-238 -214 -142 0
-239 -215 -143 0
-240 -216 -144 0
-241 -217 -142 0
-242 -218 -143 0
-243 -219 -144 0
-244 -220 -142 0
-245 -221 -143 0
-246 -222 -144 0
-247 -223 -142 0
-248 -224 -143 0
-249 -225 -144 0
-250 -226 -142 0
-251 -227 -143 0
-252 -228 -144 0
-253 -229 -142 0
-254 -230 -143 0
-255 -231 -144 0
-256 -232 -142 0
-257 -233 -143 0
-258 -234 -144 0
-259 -235 -142 0
-260 -236 -143 0
-261 -237 -144 0
-262 -238 -142 0
-263 -239 -143 0
-264 -240 -144 0
-265 -241 -142 0
-266 -242 -143 0
-267 -243 -144 0
-268 -244 -142 0
-269 -245 -143 0
-270 -246 -144 0
-271 -247 -142 0
-272 -248 -143 0
-273 -249 -144 0
-274 -250 -142 0
-275 -251 -143 0
-276 -252 -144 0
-277 -253 -142 0
-278 -254 -143 0
-279 -255 -144 0
-280 -256 -142 0
-281 -257 -143 0
-282 -258 -144 0
-283 -259 -142 0
-284 -260 -143 0
-285 -261 -144 0
-286 -262 -142 0
-287 -263 -143 0
-288 -264 -144 0
-289 -265 -142 0
-290 -266 -143 0
-291 -267 -144 0
-292 -268 -142 0
-293 -269 -143 0
-294 -270 -144 0
-295 -271 -142 0
-296 -272 -143 0
-297 -273 -144 0
-298 -274 -142 0
-299 -275 -143 0
-300 -276 -144 0
-301 -277 -142 0
-302 -278 -143 0
-303 -279 -144 0
-304 -280 -142 0
-305 -281 -143 0
-306 -282 -144 0
-307 -283 -142 0
-308 -284 -143 0
-309 -285 -144 0
-310 -286 -142 0
-311 -287 -143 0
-312 -288 -144 0
-313 -289 -142 0
-314 -290 -143 0
-315 -291 -144 0
-316 -292 -142 0
-317 -293 -143 0
-318 -294 -144 0
-319 -295 -142 0
-320 -296 -143 0
-321 -297 -144 0
-322 -298 -142 0
-323 -299 -143 0
-324 -300 -144 0
-325 -301 -142 0
-326 -302 -143 0
-327 -303 -144 0
-328 -304 -142 0
-329 -305 -143 0
-330 -306 -144 0
-331 -307 -142 0
-332 -308 -143 0
-333 -309 -144 0
-334 -310 -142 0
-335 -311 -143 0
-336 -312 -144 0
-337 -313 -142 0
-338 -314 -143 0
-339 -315 -144 0
-340 -316 -142 0
-341 -317 -143 0
-342 -318 -144 0
-343 -319 -142 0
-344 -320 -143 0
-345 -321 -144 0
-346 -322 -142 0
-347 -323 -143 0
-348 -324 -144 0
-349 -325 -142 0
-350 -326 -143 0
-351 -327 -144 0
-352 -328 -142 0
-353 -329 -143 0
-354 -330 -144 0
-355 -331 -142 0
-356 -332 -143 0
-357 -333 -144 0
-358 -334 -142 0
-359 -335 -143 0
-360 -336 -144 0
-361 -337 -142 0
-362 -338 -143 0
-363 -339 -144 0
-364 -340 -142 0
-365 -341 -143 0
-366 -342 -144 0
-367 -343 -142 0
-368 -344 -143 0
-369 -345 -144 0
-370 -346 -142 0
-371 -347 -143 0
-372 -348 -144 0
-373 -349 -142 0
-374 -350 -143 0
-375 -351 -144 0
-376 -352 -142 0
-377 -353 -143 0
-378 -354 -144 0
-379 -355 -142 0
-380 -356 -143 0
-381 -357 -144 0
-382 -358 -142 0
-383 -359 -143 0
-384 -360 -144 0
-385 -361 -142 0
-386 -362 -143 0
-387 -363 -144 0
-388 -364 -142 0
-389 -365 -143 0
-390 -366 -144 0
-391 -367 -142 0
-392 -368 -143 0
-393 -369 -144 0
-394 -370 -142 0
-395 -371 -143 0
-396 -372 -144 0
-397 -373 -142 0
-398 -374 -143 0
-399 -375 -144 0
-400 -376 -142 0
-401 -377 -143 0
-402 -378 -144 0
-403 -379 -142 0
-404 -380 -143 0
-405 -381 -144 0
-406 -382 -142 0
-407 -383 -143 0
-408 -384 -144 0
-409 -385 -142 0
-410 -386 -143 0
-411 -387 -144 0
-412 -388 -142 0
-413 -389 -143 0
-414 -390 -144 0
-415 -391 -142 0
-416 -392 -143 0
-417 -393 -144 0
-418 -394 -142 0
-419 -395 -143 0
-420 -396 -144 0
-421 -397 -142 0
-422 -398 -143 0
-423 -399 -144 0
-424 -400 -142 0
-425 -401 -143 0
-426 -402 -144 0
-427 -403 -142 0
-428 -404 -143 0
-429 -405 -144 0
-430 -406 -142 0
-431 -407 -143 0
-432 -408 -144 0
-433 -409 -142 0
-434 -410 -143 0
-435 -411 -144 0
-436 -412 -142 0
-437 -413 -143 0
-438 -414 -144 0
-439 -415 -142 0
-440 -416 -143 0
-441 -417 -144 0
-442 -418 -142 0
-443 -419 -143 0
-444 -420 -144 0
-445 -421 -142 0
-446 -422 -143 0
-447 -423 -144 0
-448 -424 -142 0
-449 -425 -143 0
-450 -426 -144 0
-451 -427 -142 0
-452 -428 -143 0
-453 -429 -144 0
-454 -430 -142 0
-455 -431 -143 0
-456 -432 -144 0
-457 -433 -142 0
-458 -434 -143 0
-459 -435 -144 0
-460 -436 -142 0
-461 -437 -143 0
-462 -438 -144 0
-463 -439 -142 0
-464 -440 -143 0
-465 -441 -144 0
-466 -442 -142 0
-467 -443 -143 0
-468 -444 -144 0
-469 -445 -142 0
-470 -446 -143 0
-471 -447 -144 0
-472 -448 -142 0
-473 -449 -143 0
-474 -450 -144 0
-475 -451 -142 0
-476 -452 -143 0
-477 -453 -144 0
-478 -454 -142 0
-479 -455 -143 0
-480 -456 -144 0
-481 -457 -142 0
-482 -458 -143 0
-483 -459 -144 0
-484 -460 -142 0
-485 -461 -143 0
-486 -462 -144 0
-487 -463 -142 0
-488 -464 -143 0
-489 -465 -144 0
-490 -466 -142 0
-491 -467 -143 0
-492 -468 -144 0
-493 -469 -142 0
-494 -470 -143 0
-495 -471 -144 0
-496 -472 -142 0
-497 -473 -143 0
-498 -474 -144 0
-499 -475 -142 0
-500 -476 -143 0
-501 -477 -144 0
-502 -478 -142 0
-503 -479 -143 0
-504 -480 -144 0
-505 -481 -142 0
-506 -482 -143 0
-507 -483 -144 0
-508 -484 -142 0
-509 -485 -143 0
-510 -486 -144 0
-511 -487 -142 0
-512 -488 -143 0
-513 -489 -144 0
-514 -490 -142 0
-515 -491 -143 0
-516 -492 -144 0
-517 -493 -142 0
-518 -494 -143 0
-519 -495 -144 0
-520 -496 -142 0
-521 -497 -143 0
-522 -498 -144 0
-523 -499 -142 0
-524 -500 -143 0
-525 -501 -144 0
-526 -502 -142 0
-527 -503 -143 0
-528 -504 -144 0
-529 -505 -142 0
-530 -506 -143 0
-531 -507 -144 0
-532 -508 -142 0
-533 -509 -143 0
-534 -510 -144 0
-535 -511 -142 0
-536 -512 -143 0
-537 -513 -144 0
-538 -514 -142 0
-539 -515 -143 0
-540 -516 -144 0
-541 -517 -142 0
-542 -518 -143 0
-543 -519 -144 0
-544 -520 -142 0
-545 -521 -143 0
-546 -522 -144 0
-547 -523 -142 0
-548 -524 -143 0
-549 -525 -144 0
-550 -526 -142 0
-551 -527 -143 0
-552 -528 -144 0
-553 -529 -142 0
-554 -530 -143 0
-555 -531 -144 0
-556 -532 -142 0
-557 -533 -143 0
-558 -534 -144 0
-559 -535 -142 0
-560 -536 -143 0
-561 -537 -144 0
-562 -538 -142 0
-563 -539 -143 0
-564 -540 -144 0
-565 -541 -142 0
-566 -542 -143 0
-567 -543 -144 0
-568 -544 -142 0
-569 -545 -143 0
-570 -546 -144 0
-571 -547 -142 0
-572 -548 -143 0
-573 -549 -144 0
-574 -550 -142 0
-575 -551 -143 0
-576 -552 -144 0
-577 -553 -142 0
-578 -554 -143 0
-579 -555 -144 0
-580 -556 -142 0
-581 -557 -143 0
-582 -558 -144 0
-583 -559 -142 0
-584 -560 -143 0
-585 -561 -144 0
-586 -562 -142 0
-587 -563 -143 0
-588 -564 -144 0
-589 -565 -142 0
-590 -566 -143 0
-591 -567 -144 0
-592 -568 -142 0
-593 -569 -143 0
-594 -570 -144 0
-595 -571 -142 0
-596 -572 -143 0
-597 -573 -144 0
-598 -574 -142 0
-599 -575 -143 0
-600 -576 -144 0
-601 -577 -142 0
-602 -578 -143 0
-603 -579 -144 0
-604 -580 -142 0
-605 -581 -143 0
-606 -582 -144 0
-607 -583 -142 0
-608 -584 -143 0
-609 -585 -144 0
-610 -586 -142 0
-611 -587 -143 0
-612 -588 -144 0
-613 -589 -142 0
-614 -590 -143 0
-615 -591 -144 0
-616 -592 -142 0
-617 -593 -143 0
-618 -594 -144 0
-619 -595 -142 0
-620 -596 -143 0
-621 -597 -144 0
-622 -598 -142 0
-623 -599 -143 0
-624 -600 -144 0
-625 -601 -142 0
-626 -602 -143 0
-627 -603 -144 0
-628 -604 -142 0
-629 -605 -143 0
-630 -606 -144 0
-631 -607 -142 0
-632 -608 -143 0
-633 -609 -144 0
-634 -610 -142 0
-635 -611 -143 0
-636 -612 -144 0
-637 -613 -142 0
-638 -614 -143 0
-639 -615 -144 0
-640 -616 -142 0
-641 -617 -143 0
-642 -618 -144 0
-643 -619 -142 0
-644 -620 -143 0
-645 -621 -144 0
-646 -622 -142 0
-647 -623 -143 0
-648 -624 -144 0
-160 -28 -1 0
-161 -29 -2 0
-162 -30 -3 0
-160 -31 -4 0
-161 -32 -5 0
-162 -33 -6 0
-160 -34 -7 0
-161 -35 -8 0
-162 -36 -9 0
-160 -37 -10 0
-161 -38 -11 0
-162 -39 -12 0
-160 -40 -13 0
-161 -41 -14 0
-162 -42 -15 0
-160 -43 -16 0
-161 -44 -17 0
-162 -45 -18 0
-160 -46 -19 0
-161 -47 -20 0
-162 -48 -21 0
-160 -49 -22 0
-161 -50 -23 0
-162 -51 -24 0
-160 -52 -25 0
-161 -53 -26 0
-162 -54 -27 0
-160 -55 -28 0
-161 -56 -29 0
-162 -57 -30 0
-160 -58 -31 0
-161 -59 -32 0
-162 -60 -33 0
-160 -61 -34 0
-161 -62 -35 0
-162 -63 -36 0
-160 -64 -37 0
-161 -65 -38 0
-162 -66 -39 0
-160 -67 -40 0
-161 -68 -41 0
-162 -69 -42 0
-160 -70 -43 0
-161 -71 -44 0
-162 -72 -45 0
-160 -73 -46 0
-161 -74 -47 0
-162 -75 -48 0
-160 -76 -49 0
-161 -77 -50 0
-162 -78 -51 0
-160 -79 -52 0
-161 -80 -53 0
-162 -81 -54 0
-160 -82 -55 0
-161 -83 -56 0
-162 -84 -57 0
-160 -85 -58 0
-161 -86 -59 0
-162 -87 -60 0
-160 -88 -61 0
-161 -89 -62 0
-162 -90 -63 0
-160 -91 -64 0
-161 -92 -65 0
-162 -93 -66 0
-160 -94 -67 0
-161 -95 -68 0
-162 -96 -69 0
-160 -97 -70 0
-161 -98 -71 0
-162 -99 -72 0
-160 -100 -73 0
-161 -101 -74 0
-162 -102 -75 0
-160 -103 -76 0
-161 -104 -77 0
-162 -105 -78 0
-160 -106 -79 0
-161 -107 -80 0
-162 -108 -81 0
-160 -109 -82 0
-161 -110 -83 0
-162 -111 -84 0
-160 -112 -85 0
-161 -113 -86 0
-162 -114 -87 0
-160 -115 -88 0
-161 -116 -89 0
-162 -117 -90 0
-160 -118 -91 0
-161 -119 -92 0
-162 -120 -93 0
-160 -121 -94 0
-161 -122 -95 0
-162 -123 -96 0
-160 -124 -97 0
-161 -125 -98 0
-162 -126 -99 0
-160 -127 -100 0
-161 -128 -101 0
-162 -129 -102 0
-160 -130 -103 0
-161 -131 -104 0
-162 -132 -105 0
-160 -133 -106 0
-161 -134 -107 0
-162 -135 -108 0
-160 -136 -109 0
-161 -137 -110 0
-162 -138 -111 0
-160 -139 -112 0
-161 -140 -113 0
-162 -141 -114 0
-160 -142 -115 0
-161 -143 -116 0
-162 -144 -117 0
-160 -145 -118 0
-161 -146 -119 0
-162 -147 -120 0
-160 -148 -121 0
-161 -149 -122 0
-162 -150 -123 0
-160 -151 -124 0
-161 -152 -125 0
-162 -153 -126 0
-160 -154 -127 0
-161 -155 -128 0
-162 -156 -129 0
-160 -157 -130 0
-161 -158 -131 0
-162 -159 -132 0
-160 -133 0
-161 -134 0
-162 -135 0
-163 -160 -136 0
-164 -161 -137 0
-165 -162 -138 0
-166 -160 -139 0
-167 -161 -140 0
-168 -162 -141 0
-169 -160 -142 0
-170 -161 -143 0
-171 -162 -144 0
-172 -160 -145 0
-173 -161 -146 0
-174 -162 -147 0
-175 -160 -148 0
-176 -161 -149 0
-177 -162 -150 0
-178 -160 -151 0
-179 -161 -152 0
-180 -162 -153 0
-181 -160 -154 0
-182 -161 -155 0
-183 -162 -156 0
-184 -160 -157 0
-185 -161 -158 0
-186 -162 -159 0
-187 -160 0
-188 -161 0
-189 -162 0
-190 -163 -160 0
-191 -164 -161 0
-192 -165 -162 0
-193 -166 -160 0
-194 -167 -161 0
-195 -168 -162 0
-196 -169 -160 0
-197 -170 -161 0
-198 -171 -162 0
-199 -172 -160 0
-200 -173 -161 0
-201 -174 -162 0
-202 -175 -160 0
-203 -176 -161 0
-204 -177 -162 0
-205 -178 -160 0
-206 -179 -161 0
-207 -180 -162 0
-208 -181 -160 0
-209 -182 -161 0
-210 -183 -162 0
-211 -184 -160 0
-212 -185 -161 0
-213 -186 -162 0
-214 -187 -160 0
-215 -188 -161 0
-216 -189 -162 0
-217 -190 -160 0
-218 -191 -161 0
-219 -192 -162 0
-220 -193 -160 0
-221 -194 -161 0
-222 -195 -162 0
-223 -196 -160 0
-224 -197 -161 0
-225 -198 -162 0
-226 -199 -160 0
-227 -200 -161 0
-228 -201 -162 0
-229 -202 -160 0
-230 -203 -161 0
-231 -204 -162 0
-232 -205 -160 0
-233 -206 -161 0
-234 -207 -162 0
-235 -208 -160 0
-236 -209 -161 0
-237 -210 -162 0
-238 -211 -160 0
-239 -212 -161 0
-240 -213 -162 0
-241 -214 -160 0
-242 -215 -161 0
-243 -216 -162 0
-244 -217 -160 0
-245 -218 -161 0
-246 -219 -162 0
-247 -220 -160 0
-248 -221 -161 0
-249 -222 -162 0
-250 -223 -160 0
-251 -224 -161 0
-252 -225 -162 0
-253 -226 -160 0
-254 -227 -161 0
-255 -228 -162 0
-256 -229 -160 0
-257 -230 -161 0
-258 -231 -162 0
-259 -232 -160 0
-260 -233 -161 0
-261 -234 -162 0
-262 -235 -160 0
-263 -236 -161 0
-264 -237 -162 0
-265 -238 -160 0
-266 -239 -161 0
-267 -240 -162 0
-268 -241 -160 0
-269 -242 -161 0
-270 -243 -162 0
-271 -244 -160 0
-272 -245 -161 0
-273 -246 -162 0
-274 -247 -160 0
-275 -248 -161 0
-276 -249 -162 0
-277 -250 -160 0
-278 -251 -161 0
-279 -252 -162 0
-280 -253 -160 0
-281 -254 -161 0
-282 -255 -162 0
-283 -256 -160 0
-284 -257 -161 0
-285 -258 -162 0
-286 -259 -160 0
-287 -260 -161 0
-288 -261 -162 0
-289 -262 -160 0
-290 -263 -161 0
-291 -264 -162 0
-292 -265 -160 0
-293 -266 -161 0
-294 -267 -162 0
-295 -268 -160 0
-296 -269 -161 0
-297 -270 -162 0
-298 -271 -160 0
-299 -272 -161 0
-300 -273 -162 0
-301 -274 -160 0
-302 -275 -161 0
-303 -276 -162 0
-304 -277 -160 0
-305 -278 -161 0
-306 -279 -162 0
-307 -280 -160 0
-308 -281 -161 0
-309 -282 -162 0
-310 -283 -160 0
-311 -284 -161 0
-312 -285 -162 0
-313 -286 -160 0
-314 -287 -161 0
-315 -288 -162 0
-316 -289 -160 0
-317 -290 -161 0
-318 -291 -162 0
-319 -292 -160 0
-320 -293 -161 0
-321 -294 -162 0
-322 -295 -160 0
-323 -296 -161 0
-324 -297 -162 0
-325 -298 -160 0
-326 -299 -161 0
-327 -300 -162 0
-328 -301 -160 0
-329 -302 -161 0
-330 -303 -162 0
-331 -304 -160 0
-332 -305 -161 0
-333 -306 -162 0
-334 -307 -160 0
-335 -308 -161 0
-336 -309 -162 0
-337 -310 -160 0
-338 -311 -161 0
-339 -312 -162 0
-340 -313 -160 0
-341 -314 -161 0
-342 -315 -162 0
-343 -316 -160 0
-344 -317 -161 0
-345 -318 -162 0
-346 -319 -160 0
-347 -320 -161 0
-348 -321 -162 0
-349 -322 -160 0
-350 -323 -161 0
-351 -324 -162 0
-352 -325 -160 0
-353 -326 -161 0
-354 -327 -162 0
-355 -328 -160 0
-356 -329 -161 0
-357 -330 -162 0
-358 -331 -160 0
-359 -332 -161 0
-360 -333 -162 0
-361 -334 -160 0
-362 -335 -161 0
-363 -336 -162 0
-364 -337 -160 0
-365 -338 -161 0
-366 -339 -162 0
-367 -340 -160 0
-368 -341 -161 0
-369 -342 -162 0
-370 -343 -160 0
-371 -344 -161 0
-372 -345 -162 0
-373 -346 -160 0
-374 -347 -161 0
-375 -348 -162 0
-376 -349 -160 0
-377 -350 -161 0
-378 -351 -162 0
-379 -352 -160 0
-380 -353 -161 0
-381 -354 -162 0
-382 -355 -160 0
-383 -356 -161 0
-384 -357 -162 0
-385 -358 -160 0
-386 -359 -161 0
-387 -360 -162 0
-388 -361 -160 0
-389 -362 -161 0
-390 -363 -162 0
-391 -364 -160 0
-392 -365 -161 0
-393 -366 -162 0
-394 -367 -160 0
-395 -368 -161 0
-396 -369 -162 0
-397 -370 -160 0
-398 -371 -161 0
-399 -372 -162 0
-400 -373 -160 0
-401 -374 -161 0
-402 -375 -162 0
-403 -376 -160 0
-404 -377 -161 0
-405 -378 -162 0
-406 -379 -160 0
-407 -380 -161 0
-408 -381 -162 0
-409 -382 -160 0
-410 -383 -161 0
-411 -384 -162 0
-412 -385 -160 0
-413 -386 -161 0
-414 -387 -162 0
-415 -388 -160 0
-416 -389 -161 0
-417 -390 -162 0
-418 -391 -160 0
-419 -392 -161 0
-420 -393 -162 0
-421 -394 -160 0
-422 -395 -161 0
-423 -396 -162 0
-424 -397 -160 0
-425 -398 -161 0
-426 -399 -162 0
-427 -400 -160 0
-428 -401 -161 0
-429 -402 -162 0
-430 -403 -160 0
-431 -404 -161 0
-432 -405 -162 0
-433 -406 -160 0
-434 -407 -161 0
-435 -408 -162 0
-436 -409 -160 0
-437 -410 -161 0
-438 -411 -162 0
-439 -412 -160 0
-440 -413 -161 0
-441 -414 -162 0
-442 -415 -160 0
-443 -416 -161 0
-444 -417 -162 0
-445 -418 -160 0
-446 -419 -161 0
-447 -420 -162 0
-448 -421 -160 0
-449 -422 -161 0
-450 -423 -162 0
-451 -424 -160 0
-452 -425 -161 0
-453 -426 -162 0
-454 -427 -160 0
-455 -428 -161 0
-456 -429 -162 0
-457 -430 -160 0
-458 -431 -161 0
-459 -432 -162 0
-460 -433 -160 0
-461 -434 -161 0
-462 -435 -162 0
-463 -436 -160 0
-464 -437 -161 0
-465 -438 -162 0
-466 -439 -160 0
-467 -440 -161 0
-468 -441 -162 0
-469 -442 -160 0
-470 -443 -161 0
-471 -444 -162 0
-472 -445 -160 0
-473 -446 -161 0
-474 -447 -162 0
-475 -448 -160 0
-476 -449 -161 0
-477 -450 -162 0
-478 -451 -160 0
-479 -452 -161 0
-480 -453 -162 0
-481 -454 -160 0
-482 -455 -161 0
-483 -456 -162 0
-484 -457 -160 0
-485 -458 -161 0
-486 -459 -162 0
-487 -460 -160 0
-488 -461 -161 0
-489 -462 -162 0
-490 -463 -160 0
-491 -464 -161 0
-492 -465 -162 0
-493 -466 -160 0
-494 -467 -161 0
-495 -468 -162 0
-496 -469 -160 0
-497 -470 -161 0
-498 -471 -162 0
-499 -472 -160 0
-500 -473 -161 0
-501 -474 -162 0
-502 -475 -160 0
-503 -476 -161 0
-504 -477 -162 0
-505 -478 -160 0
-506 -479 -161 0
-507 -480 -162 0
-508 -481 -160 0
-509 -482 -161 0
-510 -483 -162 0
-511 -484 -160 0
-512 -485 -161 0
-513 -486 -162 0
-514 -487 -160 0
-515 -488 -161 0
-516 -489 -162 0
-517 -490 -160 0
-518 -491 -161 0
-519 -492 -162 0
-520 -493 -160 0
-521 -494 -161 0
-522 -495 -162 0
-523 -496 -160 0
-524 -497 -161 0
-525 -498 -162 0
-526 -499 -160 0
-527 -500 -161 0
-528 -501 -162 0
-529 -502 -160 0
-530 -503 -161 0
-531 -504 -162 0
-532 -505 -160 0
-533 -506 -161 0
-534 -507 -162 0
-535 -508 -160 0
-536 -509 -161 0
-537 -510 -162 0
-538 -511 -160 0
-539 -512 -161 0
-540 -513 -162 0
-541 -514 -160 0
-542 -515 -161 0
-543 -516 -162 0
-544 -517 -160 0
-545 -518 -161 0
-546 -519 -162 0
-547 -520 -160 0
-548 -521 -161 0
-549 -522 -162 0
-550 -523 -160 0
-551 -524 -161 0
-552 -525 -162 0
-553 -526 -160 0
-554 -527 -161 0
-555 -528 -162 0
-556 -529 -160 0
-557 -530 -161 0
-558 -531 -162 0
-559 -532 -160 0
-560 -533 -161 0
-561 -534 -162 0
-562 -535 -160 0
-563 -536 -161 0
-564 -537 -162 0
-565 -538 -160 0
-566 -539 -161 0
-567 -540 -162 0
-568 -541 -160 0
-569 -542 -161 0
-570 -543 -162 0
-571 -544 -160 0
-572 -545 -161 0
-573 -546 -162 0
-574 -547 -160 0
-575 -548 -161 0
-576 -549 -162 0
-577 -550 -160 0
-578 -551 -161 0
-579 -552 -162 0
-580 -553 -160 0
-581 -554 -161 0
-582 -555 -162 0
-583 -556 -160 0
-584 -557 -161 0
-585 -558 -162 0
-586 -559 -160 0
-587 -560 -161 0
-588 -561 -162 0
-589 -562 -160 0
-590 -563 -161 0
-591 -564 -162 0
-592 -565 -160 0
-593 -566 -161 0
-594 -567 -162 0
-595 -568 -160 0
-596 -569 -161 0
-597 -570 -162 0
-598 -571 -160 0
-599 -572 -161 0
-600 -573 -162 0
-601 -574 -160 0
-602 -575 -161 0
-603 -576 -162 0
-604 -577 -160 0
-605 -578 -161 0
-606 -579 -162 0
-607 -580 -160 0
-608 -581 -161 0
-609 -582 -162 0
-610 -583 -160 0
-611 -584 -161 0
-612 -585 -162 0
-613 -586 -160 0
-614 -587 -161 0
-615 -588 -162 0
-616 -589 -160 0
-617 -590 -161 0
-618 -591 -162 0
-619 -592 -160 0
-620 -593 -161 0
-621 -594 -162 0
-622 -595 -160 0
-623 -596 -161 0
-624 -597 -162 0
-625 -598 -160 0
-626 -599 -161 0
-627 -600 -162 0
-628 -601 -160 0
-629 -602 -161 0
-630 -603 -162 0
-631 -604 -160 0
-632 -605 -161 0
-633 -606 -162 0
-634 -607 -160 0
-635 -608 -161 0
-636 -609 -162 0
-637 -610 -160 0
-638 -611 -161 0
-639 -612 -162 0
-640 -613 -160 0
-641 -614 -161 0
-642 -615 -162 0
-643 -616 -160 0
-644 -617 -161 0
-645 -618 -162 0
-646 -619 -160 0
-647 -620 -161 0
-648 -621 -162 0
-178 -31 -1 0
-179 -32 -2 0
-180 -33 -3 0
-178 -34 -4 0
-179 -35 -5 0
-180 -36 -6 0
-178 -37 -7 0
-179 -38 -8 0
-180 -39 -9 0
-178 -40 -10 0
-179 -41 -11 0
-180 -42 -12 0
-178 -43 -13 0
-179 -44 -14 0
-180 -45 -15 0
-178 -46 -16 0
-179 -47 -17 0
-180 -48 -18 0
-178 -49 -19 0
-179 -50 -20 0
-180 -51 -21 0
-178 -52 -22 0
-179 -53 -23 0
-180 -54 -24 0
-178 -55 -25 0
-179 -56 -26 0
-180 -57 -27 0
-178 -58 -28 0
-179 -59 -29 0
-180 -60 -30 0
-178 -61 -31 0
-179 -62 -32 0
-180 -63 -33 0
-178 -64 -34 0
-179 -65 -35 0
-180 -66 -36 0
-178 -67 -37 0
-179 -68 -38 0
-180 -69 -39 0
-178 -70 -40 0
-179 -71 -41 0
-180 -72 -42 0
-178 -73 -43 0
-179 -74 -44 0
-180 -75 -45 0
-178 -76 -46 0
-179 -77 -47 0
-180 -78 -48 0
-178 -79 -49 0
-179 -80 -50 0
-180 -81 -51 0
-178 -82 -52 0
-179 -83 -53 0
-180 -84 -54 0
-178 -85 -55 0
-179 -86 -56 0
-180 -87 -57 0
-178 -88 -58 0
-179 -89 -59 0
-180 -90 -60 0
-178 -91 -61 0
-179 -92 -62 0
-180 -93 -63 0
-178 -94 -64 0
-179 -95 -65 0
-180 -96 -66 0
-178 -97 -67 0
-179 -98 -68 0
-180 -99 -69 0
-178 -100 -70 0
-179 -101 -71 0
-180 -102 -72 0
-178 -103 -73 0
-179 -104 -74 0
-180 -105 -75 0
-178 -106 -76 0
-179 -107 -77 0
-180 -108 -78 0
-178 -109 -79 0
-179 -110 -80 0
-180 -111 -81 0
-178 -112 -82 0
-179 -113 -83 0
-180 -114 -84 0
-178 -115 -85 0
-179 -116 -86 0
-180 -117 -87 0
-178 -118 -88 0
-179 -119 -89 0
-180 -120 -90 0
-178 -121 -91 0
-179 -122 -92 0
-180 -123 -93 0
-178 -124 -94 0
-179 -125 -95 0
-180 -126 -96 0
-178 -127 -97 0
-179 -128 -98 0
-180 -129 -99 0
-178 -130 -100 0
-179 -131 -101 0
-180 -132 -102 0
-178 -133 -103 0
-179 -134 -104 0
-180 -135 -105 0
-178 -136 -106 0
-179 -137 -107 0
-180 -138 -108 0
-178 -139 -109 0
-179 -140 -110 0
-180 -141 -111 0
-178 -142 -112 0
-179 -143 -113 0
-180 -144 -114 0
-178 -145 -115 0
-179 -146 -116 0
-180 -147 -117 0
-178 -148 -118 0
-179 -149 -119 0
-180 -150 -120 0
-178 -151 -121 0
-179 -152 -122 0
-180 -153 -123 0
-178 -154 -124 0
-179 -155 -125 0
-180 -156 -126 0
-178 -157 -127 0
-179 -158 -128 0
-180 -159 -129 0
-178 -160 -130 0
-179 -161 -131 0
-180 -162 -132 0
-178 -163 -133 0
-179 -164 -134 0
-180 -165 -135 0
-178 -166 -136 0
-179 -167 -137 0
-180 -168 -138 0
-178 -169 -139 0
-179 -170 -140 0
-180 -171 -141 0
-178 -172 -142 0
-179 -173 -143 0
-180 -174 -144 0
-178 -175 -145 0
-179 -176 -146 0
-180 -177 -147 0
-178 -148 0
-179 -149 0
-180 -150 0
-181 -178 -151 0
-182 -179 -152 0
-183 -180 -153 0
-184 -178 -154 0
-185 -179 -155 0
-186 -180 -156 0
-187 -178 -157 0
-188 -179 -158 0
-189 -180 -159 0
-190 -178 -160 0
-191 -179 -161 0
-192 -180 -162 0
-193 -178 -163 0
-194 -179 -164 0
-195 -180 -165 0
-196 -178 -166 0
-197 -179 -167 0
-198 -180 -168 0
-199 -178 -169 0
-200 -179 -170 0
-201 -180 -171 0
-202 -178 -172 0
-203 -179 -173 0
-204 -180 -174 0
-205 -178 -175 0
-206 -179 -176 0
-207 -180 -177 0
-208 -178 0
-209 -179 0
-210 -180 0
-211 -181 -178 0
-212 -182 -179 0
-213 -183 -180 0
-214 -184 -178 0
-215 -185 -179 0
-216 -186 -180 0
-217 -187 -178 0
-218 -188 -179 0
-219 -189 -180 0
-220 -190 -178 0
-221 -191 -179 0
-222 -192 -180 0
-223 -193 -178 0
-224 -194 -179 0
-225 -195 -180 0
-226 -196 -178 0
-227 -197 -179 0
-228 -198 -180 0
-229 -199 -178 0
-230 -200 -179 0
-231 -201 -180 0
-232 -202 -178 0
-233 -203 -179 0
-234 -204 -180 0
-235 -205 -178 0
-236 -206 -179 0
-237 -207 -180 0
-238 -208 -178 0
-239 -209 -179 0
-240 -210 -180 0
-241 -211 -178 0
-242 -212 -179 0
-243 -213 -180 0
-244 -214 -178 0
-245 -215 -179 0
-246 -216 -180 0
-247 -217 -178 0
-248 -218 -179 0
-249 -219 -180 0
-250 -220 -178 0
-251 -221 -179 0
-252 -222 -180 0
-253 -223 -178 0
-254 -224 -179 0
-255 -225 -180 0
-256 -226 -178 0
-257 -227 -179 0
-258 -228 -180 0
-259 -229 -178 0
-260 -230 -179 0
-261 -231 -180 0
-262 -232 -178 0
-263 -233 -179 0
-264 -234 -180 0
-265 -235 -178 0
-266 -236 -179 0
-267 -237 -180 0
-268 -238 -178 0
-269 -239 -179 0
-270 -240 -180 0
-271 -241 -178 0
-272 -242 -179 0
-273 -243 -180 0
-274 -244 -178 0
-275 -245 -179 0
-276 -246 -180 0
-277 -247 -178 0
-278 -248 -179 0
-279 -249 -180 0
-280 -250 -178 0
-281 -251 -179 0
-282 -252 -180 0
-283 -253 -178 0
-284 -254 -179 0
-285 -255 -180 0
-286 -256 -178 0
-287 -257 -179 0
-288 -258 -180 0
-289 -259 -178 0
-290 -260 -179 0
-291 -261 -180 0
-292 -262 -178 0
-293 -263 -179 0
-294 -264 -180 0
-295 -265 -178 0
-296 -266 -179 0
-297 -267 -180 0
-298 -268 -178 0
-299 -269 -179 0
-300 -270 -180 0
-301 -271 -178 0
-302 -272 -179 0
-303 -273 -180 0
-304 -274 -178 0
-305 -275 -179 0
-306 -276 -180 0
-307 -277 -178 0
-308 -278 -179 0
-309 -279 -180 0
-310 -280 -178 0
-311 -281 -179 0
-312 -282 -180 0
-313 -283 -178 0
-314 -284 -179 0
-315 -285 -180 0
-316 -286 -178 0
-317 -287 -179 0
-318 -288 -180 0
-319 -289 -178 0
-320 -290 -179 0
-321 -291 -180 0
-322 -292 -178 0
-323 -293 -179 0
-324 -294 -180 0
-325 -295 -178 0
-326 -296 -179 0
-327 -297 -180 0
-328 -298 -178 0
-329 -299 -179 0
-330 -300 -180 0
-331 -301 -178 0
-332 -302 -179 0
-333 -303 -180 0
-334 -304 -178 0
-335 -305 -179 0
-336 -306 -180 0
-337 -307 -178 0
-338 -308 -179 0
-339 -309 -180 0
-340 -310 -178 0
-341 -311 -179 0
-342 -312 -180 0
-343 -313 -178 0
-344 -314 -179 0
-345 -315 -180 0
-346 -316 -178 0
-347 -317 -179 0
-348 -318 -180 0
-349 -319 -178 0
-350 -320 -179 0
-351 -321 -180 0
-352 -322 -178 0
-353 -323 -179 0
-354 -324 -180 0
-355 -325 -178 0
-356 -326 -179 0
-357 -327 -180 0
-358 -328 -178 0
-359 -329 -179 0
-360 -330 -180 0
-361 -331 -178 0
-362 -332 -179 0
-363 -333 -180 0
-364 -334 -178 0
-365 -335 -179 0
-366 -336 -180 0
-367 -337 -178 0
-368 -338 -179 0
-369 -339 -180 0
-370 -340 -178 0
-371 -341 -179 0
-372 -342 -180 0
-373 -343 -178 0
-374 -344 -179 0
-375 -345 -180 0
-376 -346 -178 0
-377 -347 -179 0
-378 -348 -180 0
-379 -349 -178 0
-380 -350 -179 0
-381 -351 -180 0
-382 -352 -178 0
-383 -353 -179 0
-384 -354 -180 0
-385 -355 -178 0
-386 -356 -179 0
-387 -357 -180 0
-388 -358 -178 0
-389 -359 -179 0
-390 -360 -180 0
-391 -361 -178 0
-392 -362 -179 0
-393 -363 -180 0
-394 -364 -178 0
-395 -365 -179 0
-396 -366 -180 0
-397 -367 -178 0
-398 -368 -179 0
-399 -369 -180 0
-400 -370 -178 0
-401 -371 -179 0
-402 -372 -180 0
-403 -373 -178 0
-404 -374 -179 0
-405 -375 -180 0
-406 -376 -178 0
-407 -377 -179 0
-408 -378 -180 0
-409 -379 -178 0
-410 -380 -179 0
-411 -381 -180 0
-412 -382 -178 0
-413 -383 -179 0
-414 -384 -180 0
-415 -385 -178 0
-416 -386 -179 0
-417 -387 -180 0
-418 -388 -178 0
-419 -389 -179 0
-420 -390 -180 0
-421 -391 -178 0
-422 -392 -179 0
-423 -393 -180 0
-424 -394 -178 0
-425 -395 -179 0
-426 -396 -180 0
-427 -397 -178 0
-428 -398 -179 0
-429 -399 -180 0
-430 -400 -178 0
-431 -401 -179 0
-432 -402 -180 0
-433 -403 -178 0
-434 -404 -179 0
-435 -405 -180 0
-436 -406 -178 0
-437 -407 -179 0
-438 -408 -180 0
-439 -409 -178 0
-440 -410 -179 0
-441 -411 -180 0
-442 -412 -178 0
-443 -413 -179 0
-444 -414 -180 0
-445 -415 -178 0
-446 -416 -179 0
-447 -417 -180 0
-448 -418 -178 0
-449 -419 -179 0
-450 -420 -180 0
-451 -421 -178 0
-452 -422 -179 0
-453 -423 -180 0
-454 -424 -178 0
-455 -425 -179 0
-456 -426 -180 0
-457 -427 -178 0
-458 -428 -179 0
-459 -429 -180 0
-460 -430 -178 0
-461 -431 -179 0
-462 -432 -180 0
-463 -433 -178 0
-464 -434 -179 0
-465 -435 -180 0
-466 -436 -178 0
-467 -437 -179 0
-468 -438 -180 0
-469 -439 -178 0
-470 -440 -179 0
-471 -441 -180 0
-472 -442 -178 0
-473 -443 -179 0
-474 -444 -180 0
-475 -445 -178 0
-476 -446 -179 0
-477 -447 -180 0
-478 -448 -178 0
-479 -449 -179 0
-480 -450 -180 0
-481 -451 -178 0
-482 -452 -179 0
-483 -453 -180 0
-484 -454 -178 0
-485 -455 -179 0
-486 -456 -180 0
-487 -457 -178 0
-488 -458 -179 0
-489 -459 -180 0
-490 -460 -178 0
-491 -461 -179 0
-492 -462 -180 0
-493 -463 -178 0
-494 -464 -179 0
-495 -465 -180 0
-496 -466 -178 0
-497 -467 -179 0
-498 -468 -180 0
-499 -469 -178 0
-500 -470 -179 0
-501 -471 -180 0
-502 -472 -178 0
-503 -473 -179 0
-504 -474 -180 0
-505 -475 -178 0
-506 -476 -179 0
-507 -477 -180 0
-508 -478 -178 0
-509 -479 -179 0
-510 -480 -180 0
-511 -481 -178 0
-512 -482 -179 0
-513 -483 -180 0
-514 -484 -178 0
-515 -485 -179 0
-516 -486 -180 0
-517 -487 -178 0
-518 -488 -179 0
-519 -489 -180 0
-520 -490 -178 0
-521 -491 -179 0
-522 -492 -180 0
-523 -493 -178 0
-524 -494 -179 0
-525 -495 -180 0
-526 -496 -178 0
-527 -497 -179 0
-528 -498 -180 0
-529 -499 -178 0
-530 -500 -179 0
-531 -501 -180 0
-532 -502 -178 0
-533 -503 -179 0
-534 -504 -180 0
-535 -505 -178 0
-536 -506 -179 0
-537 -507 -180 0
-538 -508 -178 0
-539 -509 -179 0
-540 -510 -180 0
-541 -511 -178 0
-542 -512 -179 0
-543 -513 -180 0
-544 -514 -178 0
-545 -515 -179 0
-546 -516 -180 0
-547 -517 -178 0
-548 -518 -179 0
-549 -519 -180 0
-550 -520 -178 0
-551 -521 -179 0
-552 -522 -180 0
-553 -523 -178 0
-554 -524 -179 0
-555 -525 -180 0
-556 -526 -178 0
-557 -527 -179 0
-558 -528 -180 0
-559 -529 -178 0
-560 -530 -179 0
-561 -531 -180 0
-562 -532 -178 0
-563 -533 -179 0
-564 -534 -180 0
-565 -535 -178 0
-566 -536 -179 0
-567 -537 -180 0
-568 -538 -178 0
-569 -539 -179 0
-570 -540 -180 0
-571 -541 -178 0
-572 -542 -179 0
-573 -543 -180 0
-574 -544 -178 0
-575 -545 -179 0
-576 -546 -180 0
-577 -547 -178 0
-578 -548 -179 0
-579 -549 -180 0
-580 -550 -178 0
-581 -551 -179 0
-582 -552 -180 0
-583 -553 -178 0
-584 -554 -179 0
-585 -555 -180 0
-586 -556 -178 0
-587 -557 -179 0
-588 -558 -180 0
-589 -559 -178 0
-590 -560 -179 0
-591 -561 -180 0
-592 -562 -178 0
-593 -563 -179 0
-594 -564 -180 0
-595 -565 -178 0
-596 -566 -179 0
-597 -567 -180 0
-598 -568 -178 0
-599 -569 -179 0
-600 -570 -180 0
-601 -571 -178 0
-602 -572 -179 0
-603 -573 -180 0
-604 -574 -178 0
-605 -575 -179 0
-606 -576 -180 0
-607 -577 -178 0
-608 -578 -179 0
-609 -579 -180 0
-610 -580 -178 0
-611 -581 -179 0
-612 -582 -180 0
-613 -583 -178 0
-614 -584 -179 0
-615 -585 -180 0
-616 -586 -178 0
-617 -587 -179 0
-618 -588 -180 0
-619 -589 -178 0
-620 -590 -179 0
-621 -591 -180 0
-622 -592 -178 0
-623 -593 -179 0
-624 -594 -180 0
-625 -595 -178 0
-626 -596 -179 0
-627 -597 -180 0
-628 -598 -178 0
-629 -599 -179 0
-630 -600 -180 0
-631 -601 -178 0
-632 -602 -179 0
-633 -603 -180 0
-634 -604 -178 0
-635 -605 -179 0
-636 -606 -180 0
-637 -607 -178 0
-638 -608 -179 0
-639 -609 -180 0
-640 -610 -178 0
-641 -611 -179 0
-642 -612 -180 0
-643 -613 -178 0
-644 -614 -179 0
-645 -615 -180 0
-646 -616 -178 0
-647 -617 -179 0
-648 -618 -180 0
-196 -34 -1 0
-197 -35 -2 0
-198 -36 -3 0
-196 -37 -4 0
-197 -38 -5 0
-198 -39 -6 0
-196 -40 -7 0
-197 -41 -8 0
-198 -42 -9 0
-196 -43 -10 0
-197 -44 -11 0
-198 -45 -12 0
-196 -46 -13 0
-197 -47 -14 0
-198 -48 -15 0
-196 -49 -16 0
-197 -50 -17 0
-198 -51 -18 0
-196 -52 -19 0
-197 -53 -20 0
-198 -54 -21 0
-196 -55 -22 0
-197 -56 -23 0
-198 -57 -24 0
-196 -58 -25 0
-197 -59 -26 0
-198 -60 -27 0
-196 -61 -28 0
-197 -62 -29 0
-198 -63 -30 0
-196 -64 -31 0
-197 -65 -32 0
-198 -66 -33 0
-196 -67 -34 0
-197 -68 -35 0
-198 -69 -36 0
-196 -70 -37 0
-197 -71 -38 0
-198 -72 -39 0
-196 -73 -40 0
-197 -74 -41 0
-198 -75 -42 0
-196 -76 -43 0
-197 -77 -44 0
-198 -78 -45 0
-196 -79 -46 0
-197 -80 -47 0
-198 -81 -48 0
-196 -82 -49 0
-197 -83 -50 0
-198 -84 -51 0
-196 -85 -52 0
-197 -86 -53 0
-198 -87 -54 0
-196 -88 -55 0
-197 -89 -56 0
-198 -90 -57 0
-196 -91 -58 0
-197 -92 -59 0
-198 -93 -60 0
-196 -94 -61 0
-197 -95 -62 0
-198 -96 -63 0
-196 -97 -64 0
-197 -98 -65 0
-198 -99 -66 0
-196 -100 -67 0
-197 -101 -68 0
-198 -102 -69 0
-196 -103 -70 0
-197 -104 -71 0
-198 -105 -72 0
-196 -106 -73 0
-197 -107 -74 0
-198 -108 -75 0
-196 -109 -76 0
-197 -110 -77 0
-198 -111 -78 0
-196 -112 -79 0
-197 -113 -80 0
-198 -114 -81 0
-196 -115 -82 0
-197 -116 -83 0
-198 -117 -84 0
-196 -118 -85 0
-197 -119 -86 0
-198 -120 -87 0
-196 -121 -88 0
-197 -122 -89 0
-198 -123 -90 0
-196 -124 -91 0
-197 -125 -92 0
-198 -126 -93 0
-196 -127 -94 0
-197 -128 -95 0
-198 -129 -96 0
-196 -130 -97 0
-197 -131 -98 0
-198 -132 -99 0
-196 -133 -100 0
-197 -134 -101 0
-198 -135 -102 0
-196 -136 -103 0
-197 -137 -104 0
-198 -138 -105 0
-196 -139 -106 0
-197 -140 -107 0
-198 -141 -108 0
-196 -142 -109 0
-197 -143 -110 0
-198 -144 -111 0
-196 -145 -112 0
-197 -146 -113 0
-198 -147 -114 0
-196 -148 -115 0
-197 -149 -116 0
-198 -150 -117 0
-196 -151 -118 0
-197 -152 -119 0
-198 -153 -120 0
-196 -154 -121 0
-197 -155 -122 0
-198 -156 -123 0
-196 -157 -124 0
-197 -158 -125 0
-198 -159 -126 0
-196 -160 -127 0
-197 -161 -128 0
-198 -162 -129 0
-196 -163 -130 0
-197 -164 -131 0
-198 -165 -132 0
-196 -166 -133 0
-197 -167 -134 0
-198 -168 -135 0
-196 -169 -136 0
-197 -170 -137 0
-198 -171 -138 0
-196 -172 -139 0
-197 -173 -140 0
-198 -174 -141 0
-196 -175 -142 0
-197 -176 -143 0
-198 -177 -144 0
-196 -178 -145 0
-197 -179 -146 0
-198 -180 -147 0
-196 -181 -148 0
-197 -182 -149 0
-198 -183 -150 0
-196 -184 -151 0
-197 -185 -152 0
-198 -186 -153 0
-196 -187 -154 0
-197 -188 -155 0
-198 -189 -156 0
-196 -190 -157 0
-197 -191 -158 0
-198 -192 -159 0
-196 -193 -160 0
-197 -194 -161 0
-198 -195 -162 0
-196 -163 0
-197 -164 0
-198 -165 0
-199 -196 -166 0
-200 -197 -167 0
-201 -198 -168 0
-202 -196 -169 0
-203 -197 -170 0
-204 -198 -171 0
-205 -196 -172 0
-206 -197 -173 0
-207 -198 -174 0
-208 -196 -175 0
-209 -197 -176 0
-210 -198 -177 0
-211 -196 -178 0
-212 -197 -179 0
-213 -198 -180 0
-214 -196 -181 0
-215 -197 -182 0
-216 -198 -183 0
-217 -196 -184 0
-218 -197 -185 0
-219 -198 -186 0
-220 -196 -187 0
-221 -197 -188 0
-222 -198 -189 0
-223 -196 -190 0
-224 -197 -191 0
-225 -198 -192 0
-226 -196 -193 0
-227 -197 -194 0
-228 -198 -195 0
-229 -196 0
-230 -197 0
-231 -198 0
-232 -199 -196 0
-233 -200 -197 0
-234 -201 -198 0
-235 -202 -196 0
-236 -203 -197 0
-237 -204 -198 0
-238 -205 -196 0
-239 -206 -197 0
-240 -207 -198 0
-241 -208 -196 0
-242 -209 -197 0
-243 -210 -198 0
-244 -211 -196 0
-245 -212 -197 0
-246 -213 -198 0
-247 -214 -196 0
-248 -215 -197 0
-249 -216 -198 0
-250 -217 -196 0
-251 -218 -197 0
-252 -219 -198 0
-253 -220 -196 0
-254 -221 -197 0
-255 -222 -198 0
-256 -223 -196 0
-257 -224 -197 0
-258 -225 -198 0
-259 -226 -196 0
-260 -227 -197 0
-261 -228 -198 0
-262 -229 -196 0
-263 -230 -197 0
-264 -231 -198 0
-265 -232 -196 0
-266 -233 -197 0
-267 -234 -198 0
-268 -235 -196 0
-269 -236 -197 0
-270 -237 -198 0
-271 -238 -196 0
-272 -239 -197 0
-273 -240 -198 0
-274 -241 -196 0
-275 -242 -197 0
-276 -243 -198 0
-277 -244 -196 0
-278 -245 -197 0
-279 -246 -198 0
-280 -247 -196 0
-281 -248 -197 0
-282 -249 -198 0
-283 -250 -196 0
-284 -251 -197 0
-285 -252 -198 0
-286 -253 -196 0
-287 -254 -197 0
-288 -255 -198 0
-289 -256 -196 0
-290 -257 -197 0
-291 -258 -198 0
-292 -259 -196 0
-293 -260 -197 0
-294 -261 -198 0
-295 -262 -196 0
-296 -263 -197 0
-297 -264 -198 0
-298 -265 -196 0
-299 -266 -197 0
-300 -267 -198 0
-301 -268 -196 0
-302 -269 -197 0
-303 -270 -198 0
-304 -271 -196 0
-305 -272 -197 0
-306 -273 -198 0
-307 -274 -196 0
-308 -275 -197 0
-309 -276 -198 0
-310 -277 -196 0
-311 -278 -197 0
-312 -279 -198 0
-313 -280 -196 0
-314 -281 -197 0
-315 -282 -198 0
-316 -283 -196 0
-317 -284 -197 0
-318 -285 -198 0
-319 -286 -196 0
-320 -287 -197 0
-321 -288 -198 0
-322 -289 -196 0
-323 -290 -197 0
-324 -291 -198 0
-325 -292 -196 0
-326 -293 -197 0
-327 -294 -198 0
-328 -295 -196 0
-329 -296 -197 0
-330 -297 -198 0
-331 -298 -196 0
-332 -299 -197 0
-333 -300 -198 0
-334 -301 -196 0
-335 -302 -197 0
-336 -303 -198 0
-337 -304 -196 0
-338 -305 -197 0
-339 -306 -198 0
-340 -307 -196 0
-341 -308 -197 0
-342 -309 -198 0
-343 -310 -196 0
-344 -311 -197 0
-345 -312 -198 0
-346 -313 -196 0
-347 -314 -197 0
-348 -315 -198 0
-349 -316 -196 0
-350 -317 -197 0
-351 -318 -198 0
-352 -319 -196 0
-353 -320 -197 0
-354 -321 -198 0
-355 -322 -196 0
-356 -323 -197 0
-357 -324 -198 0
-358 -325 -196 0
-359 -326 -197 0
-360 -327 -198 0
-361 -328 -196 0
-362 -329 -197 0
-363 -330 -198 0
-364 -331 -196 0
-365 -332 -197 0
-366 -333 -198 0
-367 -334 -196 0
-368 -335 -197 0
-369 -336 -198 0
-370 -337 -196 0
-371 -338 -197 0
-372 -339 -198 0
-373 -340 -196 0
-374 -341 -197 0
-375 -342 -198 0
-376 -343 -196 0
-377 -344 -197 0
-378 -345 -198 0
-379 -346 -196 0
-380 -347 -197 0
-381 -348 -198 0
-382 -349 -196 0
-383 -350 -197 0
-384 -351 -198 0
-385 -352 -196 0
-386 -353 -197 0
-387 -354 -198 0
-388 -355 -196 0
-389 -356 -197 0
-390 -357 -198 0
-391 -358 -196 0
-392 -359 -197 0
-393 -360 -198 0
-394 -361 -196 0
-395 -362 -197 0
-396 -363 -198 0
-397 -364 -196 0
-398 -365 -197 0
-399 -366 -198 0
-400 -367 -196 0
-401 -368 -197 0
-402 -369 -198 0
-403 -370 -196 0
-404 -371 -197 0
-405 -372 -198 0
-406 -373 -196 0
-407 -374 -197 0
-408 -375 -198 0
-409 -376 -196 0
-410 -377 -197 0
-411 -378 -198 0
-412 -379 -196 0
-413 -380 -197 0
-414 -381 -198 0
-415 -382 -196 0
-416 -383 -197 0
-417 -384 -198 0
-418 -385 -196 0
-419 -386 -197 0
-420 -387 -198 0
-421 -388 -196 0
-422 -389 -197 0
-423 -390 -198 0
-424 -391 -196 0
-425 -392 -197 0
-426 -393 -198 0
-427 -394 -196 0
-428 -395 -197 0
-429 -396 -198 0
-430 -397 -196 0
-431 -398 -197 0
-432 -399 -198 0
-433 -400 -196 0
-434 -401 -197 0
-435 -402 -198 0
-436 -403 -196 0
-437 -404 -197 0
-438 -405 -198 0
-439 -406 -196 0
-440 -407 -197 0
-441 -408 -198 0
-442 -409 -196 0
-443 -410 -197 0
-444 -411 -198 0
-445 -412 -196 0
-446 -413 -197 0
-447 -414 -198 0
-448 -415 -196 0
-449 -416 -197 0
-450 -417 -198 0
-451 -418 -196 0
-452 -419 -197 0
-453 -420 -198 0
-454 -421 -196 0
-455 -422 -197 0
-456 -423 -198 0
-457 -424 -196 0
-458 -425 -197 0
-459 -426 -198 0
-460 -427 -196 0
-461 -428 -197 0
-462 -429 -198 0
-463 -430 -196 0
-464 -431 -197 0
-465 -432 -198 0
-466 -433 -196 0
-467 -434 -197 0
-468 -435 -198 0
-469 -436 -196 0
-470 -437 -197 0
-471 -438 -198 0
-472 -439 -196 0
-473 -440 -197 0
-474 -441 -198 0
-475 -442 -196 0
-476 -443 -197 0
-477 -444 -198 0
-478 -445 -196 0
-479 -446 -197 0
-480 -447 -198 0
-481 -448 -196 0
-482 -449 -197 0
-483 -450 -198 0
-484 -451 -196 0
-485 -452 -197 0
-486 -453 -198 0
-487 -454 -196 0
-488 -455 -197 0
-489 -456 -198 0
-490 -457 -196 0
-491 -458 -197 0
-492 -459 -198 0
-493 -460 -196 0
-494 -461 -197 0
-495 -462 -198 0
-496 -463 -196 0
-497 -464 -197 0
-498 -465 -198 0
-499 -466 -196 0
-500 -467 -197 0
-501 -468 -198 0
-502 -469 -196 0
-503 -470 -197 0
-504 -471 -198 0
-505 -472 -196 0
-506 -473 -197 0
-507 -474 -198 0
-508 -475 -196 0
-509 -476 -197 0
-510 -477 -198 0
-511 -478 -196 0
-512 -479 -197 0
-513 -480 -198 0
-514 -481 -196 0
-515 -482 -197 0
-516 -483 -198 0
-517 -484 -196 0
-518 -485 -197 0
-519 -486 -198 0
-520 -487 -196 0
-521 -488 -197 0
-522 -489 -198 0
-523 -490 -196 0
-524 -491 -197 0
-525 -492 -198 0
-526 -493 -196 0
-527 -494 -197 0
-528 -495 -198 0
-529 -496 -196 0
-530 -497 -197 0
-531 -498 -198 0
-532 -499 -196 0
-533 -500 -197 0
-534 -501 -198 0
-535 -502 -196 0
-536 -503 -197 0
-537 -504 -198 0
-538 -505 -196 0
-539 -506 -197 0
-540 -507 -198 0
-541 -508 -196 0
-542 -509 -197 0
-543 -510 -198 0
-544 -511 -196 0
-545 -512 -197 0
-546 -513 -198 0
-547 -514 -196 0
-548 -515 -197 0
-549 -516 -198 0
-550 -517 -196 0
-551 -518 -197 0
-552 -519 -198 0
-553 -520 -196 0
-554 -521 -197 0
-555 -522 -198 0
-556 -523 -196 0
-557 -524 -197 0
-558 -525 -198 0
-559 -526 -196 0
-560 -527 -197 0
-561 -528 -198 0
-562 -529 -196 0
-563 -530 -197 0
-564 -531 -198 0
-565 -532 -196 0
-566 -533 -197 0
-567 -534 -198 0
-568 -535 -196 0
-569 -536 -197 0
-570 -537 -198 0
-571 -538 -196 0
-572 -539 -197 0
-573 -540 -198 0
-574 -541 -196 0
-575 -542 -197 0
-576 -543 -198 0
-577 -544 -196 0
-578 -545 -197 0
-579 -546 -198 0
-580 -547 -196 0
-581 -548 -197 0
-582 -549 -198 0
-583 -550 -196 0
-584 -551 -197 0
-585 -552 -198 0
-586 -553 -196 0
-587 -554 -197 0
-588 -555 -198 0
-589 -556 -196 0
-590 -557 -197 0
-591 -558 -198 0
-592 -559 -196 0
-593 -560 -197 0
-594 -561 -198 0
-595 -562 -196 0
-596 -563 -197 0
-597 -564 -198 0
-598 -565 -196 0
-599 -566 -197 0
-600 -567 -198 0
-601 -568 -196 0
-602 -569 -197 0
-603 -570 -198 0
-604 -571 -196 0
-605 -572 -197 0
-606 -573 -198 0
-607 -574 -196 0
-608 -575 -197 0
-609 -576 -198 0
-610 -577 -196 0
-611 -578 -197 0
-612 -579 -198 0
-613 -580 -196 0
-614 -581 -197 0
-615 -582 -198 0
-616 -583 -196 0
-617 -584 -197 0
-618 -585 -198 0
-619 -586 -196 0
-620 -587 -197 0
-621 -588 -198 0
-622 -589 -196 0
-623 -590 -197 0
-624 -591 -198 0
-625 -592 -196 0
-626 -593 -197 0
-627 -594 -198 0
-628 -595 -196 0
-629 -596 -197 0
-630 -597 -198 0
-631 -598 -196 0
-632 -599 -197 0
-633 -600 -198 0
-634 -601 -196 0
-635 -602 -197 0
-636 -603 -198 0
-637 -604 -196 0
-638 -605 -197 0
-639 -606 -198 0
-640 -607 -196 0
-641 -608 -197 0
-642 -609 -198 0
-643 -610 -196 0
-644 -611 -197 0
-645 -612 -198 0
-646 -613 -196 0
-647 -614 -197 0
-648 -615 -198 0
-214 -37 -1 0
-215 -38 -2 0
-216 -39 -3 0
-214 -40 -4 0
-215 -41 -5 0
-216 -42 -6 0
-214 -43 -7 0
-215 -44 -8 0
-216 -45 -9 0
-214 -46 -10 0
-215 -47 -11 0
-216 -48 -12 0
-214 -49 -13 0
-215 -50 -14 0
-216 -51 -15 0
-214 -52 -16 0
-215 -53 -17 0
-216 -54 -18 0
-214 -55 -19 0
-215 -56 -20 0
-216 -57 -21 0
-214 -58 -22 0
-215 -59 -23 0
-216 -60 -24 0
-214 -61 -25 0
-215 -62 -26 0
-216 -63 -27 0
-214 -64 -28 0
-215 -65 -29 0
-216 -66 -30 0
-214 -67 -31 0
-215 -68 -32 0
-216 -69 -33 0
-214 -70 -34 0
-215 -71 -35 0
-216 -72 -36 0
-214 -73 -37 0
-215 -74 -38 0
-216 -75 -39 0
-214 -76 -40 0
-215 -77 -41 0
-216 -78 -42 0
-214 -79 -43 0
-215 -80 -44 0
-216 -81 -45 0
-214 -82 -46 0
-215 -83 -47 0
-216 -84 -48 0
-214 -85 -49 0
-215 -86 -50 0
-216 -87 -51 0
-214 -88 -52 0
-215 -89 -53 0
-216 -90 -54 0
-214 -91 -55 0
-215 -92 -56 0
-216 -93 -57 0
-214 -94 -58 0
-215 -95 -59 0
-216 -96 -60 0
-214 -97 -61 0
-215 -98 -62 0
-216 -99 -63 0
-214 -100 -64 0
-215 -101 -65 0
-216 -102 -66 0
-214 -103 -67 0
-215 -104 -68 0
-216 -105 -69 0
-214 -106 -70 0
-215 -107 -71 0
-216 -108 -72 0
-214 -109 -73 0
-215 -110 -74 0
-216 -111 -75 0
-214 -112 -76 0
-215 -113 -77 0
-216 -114 -78 0
-214 -115 -79 0
-215 -116 -80 0
-216 -117 -81 0
-214 -118 -82 0
-215 -119 -83 0
-216 -120 -84 0
-214 -121 -85 0
-215 -122 -86 0
-216 -123 -87 0
-214 -124 -88 0
-215 -125 -89 0
-216 -126 -90 0
-214 -127 -91 0
-215 -128 -92 0
-216 -129 -93 0
-214 -130 -94 0
-215 -131 -95 0
-216 -132 -96 0
-214 -133 -97 0
-215 -134 -98 0
-216 -135 -99 0
-214 -136 -100 0
-215 -137 -101 0
-216 -138 -102 0
-214 -139 -103 0
-215 -140 -104 0
-216 -141 -105 0
-214 -142 -106 0
-215 -143 -107 0
-216 -144 -108 0
-214 -145 -109 0
-215 -146 -110 0
-216 -147 -111 0
-214 -148 -112 0
-215 -149 -113 0
-216 -150 -114 0
-214 -151 -115 0
-215 -152 -116 0
-216 -153 -117 0
-214 -154 -118 0
-215 -155 -119 0
-216 -156 -120 0
-214 -157 -121 0
-215 -158 -122 0
-216 -159 -123 0
-214 -160 -124 0
-215 -161 -125 0
-216 -162 -126 0
-214 -163 -127 0
-215 -164 -128 0
-216 -165 -129 0
-214 -166 -130 0
-215 -167 -131 0
-216 -168 -132 0
-214 -169 -133 0
-215 -170 -134 0
-216 -171 -135 0
-214 -172 -136 0
-215 -173 -137 0
-216 -174 -138 0
-214 -175 -139 0
-215 -176 -140 0
-216 -177 -141 0
-214 -178 -142 0
-215 -179 -143 0
-216 -180 -144 0
-214 -181 -145 0
-215 -182 -146 0
-216 -183 -147 0
-214 -184 -148 0
-215 -185 -149 0
-216 -186 -150 0
-214 -187 -151 0
-215 -188 -152 0
-216 -189 -153 0
-214 -190 -154 0
-215 -191 -155 0
-216 -192 -156 0
-214 -193 -157 0
-215 -194 -158 0
-216 -195 -159 0
-214 -196 -160 0
-215 -197 -161 0
-216 -198 -162 0
-214 -199 -163 0
-215 -200 -164 0
-216 -201 -165 0
-214 -202 -166 0
-215 -203 -167 0
-216 -204 -168 0
-214 -205 -169 0
-215 -206 -170 0
-216 -207 -171 0
-214 -208 -172 0
-215 -209 -173 0
-216 -210 -174 0
-214 -211 -175 0
-215 -212 -176 0
-216 -213 -177 0
-214 -178 0
-215 -179 0
-216 -180 0
-217 -214 -181 0
-218 -215 -182 0
-219 -216 -183 0
-220 -214 -184 0
-221 -215 -185 0
-222 -216 -186 0
-223 -214 -187 0
-224 -215 -188 0
-225 -216 -189 0
-226 -214 -190 0
-227 -215 -191 0
-228 -216 -192 0
-229 -214 -193 0
-230 -215 -194 0
-231 -216 -195 0
-232 -214 -196 0
-233 -215 -197 0
-234 -216 -198 0
-235 -214 -199 0
-236 -215 -200 0
-237 -216 -201 0
-238 -214 -202 0
-239 -215 -203 0
-240 -216 -204 0
-241 -214 -205 0
-242 -215 -206 0
-243 -216 -207 0
-244 -214 -208 0
-245 -215 -209 0
-246 -216 -210 0
-247 -214 -211 0
-248 -215 -212 0
-249 -216 -213 0
-250 -214 0
-251 -215 0
-252 -216 0
-253 -217 -214 0
-254 -218 -215 0
-255 -219 -216 0
-256 -220 -214 0
-257 -221 -215 0
-258 -222 -216 0
-259 -223 -214 0
-260 -224 -215 0
-261 -225 -216 0
-262 -226 -214 0
-263 -227 -215 0
-264 -228 -216 0
-265 -229 -214 0
-266 -230 -215 0
-267 -231 -216 0
-268 -232 -214 0
-269 -233 -215 0
-270 -234 -216 0
-271 -235 -214 0
-272 -236 -215 0
-273 -237 -216 0
-274 -238 -214 0
-275 -239 -215 0
-276 -240 -216 0
-277 -241 -214 0
-278 -242 -215 0
-279 -243 -216 0
-280 -244 -214 0
-281 -245 -215 0
-282 -246 -216 0
-283 -247 -214 0
-284 -248 -215 0
-285 -249 -216 0
-286 -250 -214 0
-287 -251 -215 0
-288 -252 -216 0
-289 -253 -214 0
-290 -254 -215 0
-291 -255 -216 0
-292 -256 -214 0
-293 -257 -215 0
-294 -258 -216 0
-295 -259 -214 0
-296 -260 -215 0
-297 -261 -216 0
-298 -262 -214 0
-299 -263 -215 0
-300 -264 -216 0
-301 -265 -214 0
-302 -266 -215 0
-303 -267 -216 0
-304 -268 -214 0
-305 -269 -215 0
-306 -270 -216 0
-307 -271 -214 0
-308 -272 -215 0
-309 -273 -216 0
-310 -274 -214 0
-311 -275 -215 0
-312 -276 -216 0
-313 -277 -214 0
-314 -278 -215 0
-315 -279 -216 0
-316 -280 -214 0
-317 -281 -215 0
-318 -282 -216 0
-319 -283 -214 0
-320 -284 -215 0
-321 -285 -216 0
-322 -286 -214 0
-323 -287 -215 0
-324 -288 -216 0
-325 -289 -214 0
-326 -290 -215 0
-327 -291 -216 0
-328 -292 -214 0
-329 -293 -215 0
-330 -294 -216 0
-331 -295 -214 0
-332 -296 -215 0
-333 -297 -216 0
-334 -298 -214 0
-335 -299 -215 0
-336 -300 -216 0
-337 -301 -214 0
-338 -302 -215 0
-339 -303 -216 0
-340 -304 -214 0
-341 -305 -215 0
-342 -306 -216 0
-343 -307 -214 0
-344 -308 -215 0
-345 -309 -216 0
-346 -310 -214 0
-347 -311 -215 0
-348 -312 -216 0
-349 -313 -214 0
-350 -314 -215 0
-351 -315 -216 0
-352 -316 -214 0
-353 -317 -215 0
-354 -318 -216 0
-355 -319 -214 0
-356 -320 -215 0
-357 -321 -216 0
-358 -322 -214 0
-359 -323 -215 0
-360 -324 -216 0
-361 -325 -214 0
-362 -326 -215 0
-363 -327 -216 0
-364 -328 -214 0
-365 -329 -215 0
-366 -330 -216 0
-367 -331 -214 0
-368 -332 -215 0
-369 -333 -216 0
-370 -334 -214 0
-371 -335 -215 0
-372 -336 -216 0
-373 -337 -214 0
-374 -338 -215 0
-375 -339 -216 0
-376 -340 -214 0
-377 -341 -215 0
-378 -342 -216 0
-379 -343 -214 0
-380 -344 -215 0
-381 -345 -216 0
-382 -346 -214 0
-383 -347 -215 0
-384 -348 -216 0
-385 -349 -214 0
-386 -350 -215 0
-387 -351 -216 0
-388 -352 -214 0
-389 -353 -215 0
-390 -354 -216 0
-391 -355 -214 0
-392 -356 -215 0
-393 -357 -216 0
-394 -358 -214 0
-395 -359 -215 0
-396 -360 -216 0
-397 -361 -214 0
-398 -362 -215 0
-399 -363 -216 0
-400 -364 -214 0
-401 -365 -215 0
-402 -366 -216 0
-403 -367 -214 0
-404 -368 -215 0
-405 -369 -216 0
-406 -370 -214 0
-407 -371 -215 0
-408 -372 -216 0
-409 -373 -214 0
-410 -374 -215 0
-411 -375 -216 0
-412 -376 -214 0
-413 -377 -215 0
-414 -378 -216 0
-415 -379 -214 0
-416 -380 -215 0
-417 -381 -216 0
-418 -382 -214 0
-419 -383 -215 0
-420 -384 -216 0
-421 -385 -214 0
-422 -386 -215 0
-423 -387 -216 0
-424 -388 -214 0
-425 -389 -215 0
-426 -390 -216 0
-427 -391 -214 0
-428 -392 -215 0
-429 -393 -216 0
-430 -394 -214 0
-431 -395 -215 0
-432 -396 -216 0
-433 -397 -214 0
-434 -398 -215 0
-435 -399 -216 0
-436 -400 -214 0
-437 -401 -215 0
-438 -402 -216 0
-439 -403 -214 0
-440 -404 -215 0
-441 -405 -216 0
-442 -406 -214 0
-443 -407 -215 0
-444 -408 -216 0
-445 -409 -214 0
-446 -410 -215 0
-447 -411 -216 0
-448 -412 -214 0
-449 -413 -215 0
-450 -414 -216 0
-451 -415 -214 0
-452 -416 -215 0
-453 -417 -216 0
-454 -418 -214 0
-455 -419 -215 0
-456 -420 -216 0
-457 -421 -214 0
-458 -422 -215 0
-459 -423 -216 0
-460 -424 -214 0
-461 -425 -215 0
-462 -426 -216 0
-463 -427 -214 0
-464 -428 -215 0
-465 -429 -216 0
-466 -430 -214 0
-467 -431 -215 0
-468 -432 -216 0
-469 -433 -214 0
-470 -434 -215 0
-471 -435 -216 0
-472 -436 -214 0
-473 -437 -215 0
-474 -438 -216 0
-475 -439 -214 0
-476 -440 -215 0
-477 -441 -216 0
-478 -442 -214 0
-479 -443 -215 0
-480 -444 -216 0
-481 -445 -214 0
-482 -446 -215 0
-483 -447 -216 0
-484 -448 -214 0
-485 -449 -215 0
-486 -450 -216 0
-487 -451 -214 0
-488 -452 -215 0
-489 -453 -216 0
-490 -454 -214 0
-491 -455 -215 0
-492 -456 -216 0
-493 -457 -214 0
-494 -458 -215 0
-495 -459 -216 0
-496 -460 -214 0
-497 -461 -215 0
-498 -462 -216 0
-499 -463 -214 0
-500 -464 -215 0
-501 -465 -216 0
-502 -466 -214 0
-503 -467 -215 0
-504 -468 -216 0
-505 -469 -214 0
-506 -470 -215 0
-507 -471 -216 0
-508 -472 -214 0
-509 -473 -215 0
-510 -474 -216 0
-511 -475 -214 0
-512 -476 -215 0
-513 -477 -216 0
-514 -478 -214 0
-515 -479 -215 0
-516 -480 -216 0
-517 -481 -214 0
-518 -482 -215 0
-519 -483 -216 0
-520 -484 -214 0
-521 -485 -215 0
-522 -486 -216 0
-523 -487 -214 0
-524 -488 -215 0
-525 -489 -216 0
-526 -490 -214 0
-527 -491 -215 0
-528 -492 -216 0
-529 -493 -214 0
-530 -494 -215 0
-531 -495 -216 0
-532 -496 -214 0
-533 -497 -215 0
-534 -498 -216 0
-535 -499 -214 0
-536 -500 -215 0
-537 -501 -216 0
-538 -502 -214 0
-539 -503 -215 0
-540 -504 -216 0
-541 -505 -214 0
-542 -506 -215 0
-543 -507 -216 0
-544 -508 -214 0
-545 -509 -215 0
-546 -510 -216 0
-547 -511 -214 0
-548 -512 -215 0
-549 -513 -216 0
-550 -514 -214 0
-551 -515 -215 0
-552 -516 -216 0
-553 -517 -214 0
-554 -518 -215 0
-555 -519 -216 0
-556 -520 -214 0
-557 -521 -215 0
-558 -522 -216 0
-559 -523 -214 0
-560 -524 -215 0
-561 -525 -216 0
-562 -526 -214 0
-563 -527 -215 0
-564 -528 -216 0
-565 -529 -214 0
-566 -530 -215 0
-567 -531 -216 0
-568 -532 -214 0
-569 -533 -215 0
-570 -534 -216 0
-571 -535 -214 0
-572 -536 -215 0
-573 -537 -216 0
-574 -538 -214 0
-575 -539 -215 0
-576 -540 -216 0
-577 -541 -214 0
-578 -542 -215 0
-579 -543 -216 0
-580 -544 -214 0
-581 -545 -215 0
-582 -546 -216 0
-583 -547 -214 0
-584 -548 -215 0
-585 -549 -216 0
-586 -550 -214 0
-587 -551 -215 0
-588 -552 -216 0
-589 -553 -214 0
-590 -554 -215 0
-591 -555 -216 0
-592 -556 -214 0
-593 -557 -215 0
-594 -558 -216 0
-595 -559 -214 0
-596 -560 -215 0
-597 -561 -216 0
-598 -562 -214 0
-599 -563 -215 0
-600 -564 -216 0
-601 -565 -214 0
-602 -566 -215 0
-603 -567 -216 0
-604 -568 -214 0
-605 -569 -215 0
-606 -570 -216 0
-607 -571 -214 0
-608 -572 -215 0
-609 -573 -216 0
-610 -574 -214 0
-611 -575 -215 0
-612 -576 -216 0
-613 -577 -214 0
-614 -578 -215 0
-615 -579 -216 0
-616 -580 -214 0
-617 -581 -215 0
-618 -582 -216 0
-619 -583 -214 0
-620 -584 -215 0
-621 -585 -216 0
-622 -586 -214 0
-623 -587 -215 0
-624 -588 -216 0
-625 -589 -214 0
-626 -590 -215 0
-627 -591 -216 0
-628 -592 -214 0
-629 -593 -215 0
-630 -594 -216 0
-631 -595 -214 0
-632 -596 -215 0
-633 -597 -216 0
-634 -598 -214 0
-635 -599 -215 0
-636 -600 -216 0
-637 -601 -214 0
-638 -602 -215 0
-639 -603 -216 0
-640 -604 -214 0
-641 -605 -215 0
-642 -606 -216 0
-643 -607 -214 0
-644 -608 -215 0
-645 -609 -216 0
-646 -610 -214 0
-647 -611 -215 0
-648 -612 -216 0
-232 -40 -1 0
-233 -41 -2 0
-234 -42 -3 0
-232 -43 -4 0
-233 -44 -5 0
-234 -45 -6 0
-232 -46 -7 0
-233 -47 -8 0
-234 -48 -9 0
-232 -49 -10 0
-233 -50 -11 0
-234 -51 -12 0
-232 -52 -13 0
-233 -53 -14 0
-234 -54 -15 0
-232 -55 -16 0
-233 -56 -17 0
-234 -57 -18 0
-232 -58 -19 0
-233 -59 -20 0
-234 -60 -21 0
-232 -61 -22 0
-233 -62 -23 0
-234 -63 -24 0
-232 -64 -25 0
-233 -65 -26 0
-234 -66 -27 0
-232 -67 -28 0
-233 -68 -29 0
-234 -69 -30 0
-232 -70 -31 0
-233 -71 -32 0
-234 -72 -33 0
-232 -73 -34 0
-233 -74 -35 0
-234 -75 -36 0
-232 -76 -37 0
-233 -77 -38 0
-234 -78 -39 0
-232 -79 -40 0
-233 -80 -41 0
-234 -81 -42 0
-232 -82 -43 0
-233 -83 -44 0
-234 -84 -45 0
-232 -85 -46 0
-233 -86 -47 0
-234 -87 -48 0
-232 -88 -49 0
-233 -89 -50 0
-234 -90 -51 0
-232 -91 -52 0
-233 -92 -53 0
-234 -93 -54 0
-232 -94 -55 0
-233 -95 -56 0
-234 -96 -57 0
-232 -97 -58 0
-233 -98 -59 0
-234 -99 -60 0
-232 -100 -61 0
-233 -101 -62 0
-234 -102 -63 0
-232 -103 -64 0
-233 -104 -65 0
-234 -105 -66 0
-232 -106 -67 0
-233 -107 -68 0
-234 -108 -69 0
-232 -109 -70 0
-233 -110 -71 0
-234 -111 -72 0
-232 -112 -73 0
-233 -113 -74 0
-234 -114 -75 0
-232 -115 -76 0
-233 -116 -77 0
-234 -117 -78 0
-232 -118 -79 0
-233 -119 -80 0
-234 -120 -81 0
-232 -121 -82 0
-233 -122 -83 0
-234 -123 -84 0
-232 -124 -85 0
-233 -125 -86 0
-234 -126 -87 0
-232 -127 -88 0
-233 -128 -89 0
-234 -129 -90 0
-232 -130 -91 0
-233 -131 -92 0
-234 -132 -93 0
-232 -133 -94 0
-233 -134 -95 0
-234 -135 -96 0
-232 -136 -97 0
-233 -137 -98 0
-234 -138 -99 0
-232 -139 -100 0
-233 -140 -101 0
-234 -141 -102 0
-232 -142 -103 0
-233 -143 -104 0
-234 -144 -105 0
-232 -145 -106 0
-233 -146 -107 0
-234 -147 -108 0
-232 -148 -109 0
-233 -149 -110 0
-234 -150 -111 0
-232 -151 -112 0
-233 -152 -113 0
-234 -153 -114 0
-232 -154 -115 0
-233 -155 -116 0
-234 -156 -117 0
-232 -157 -118 0
-233 -158 -119 0
-234 -159 -120 0
-232 -160 -121 0
-233 -161 -122 0
-234 -162 -123 0
-232 -163 -124 0
-233 -164 -125 0
-234 -165 -126 0
-232 -166 -127 0
-233 -167 -128 0
-234 -168 -129 0
-232 -169 -130 0
-233 -170 -131 0
-234 -171 -132 0
-232 -172 -133 0
-233 -173 -134 0
-234 -174 -135 0
-232 -175 -136 0
-233 -176 -137 0
-234 -177 -138 0
-232 -178 -139 0
-233 -179 -140 0
-234 -180 -141 0
-232 -181 -142 0
-233 -182 -143 0
-234 -183 -144 0
-232 -184 -145 0
-233 -185 -146 0
-234 -186 -147 0
-232 -187 -148 0
-233 -188 -149 0
-234 -189 -150 0
-232 -190 -151 0
-233 -191 -152 0
-234 -192 -153 0
-232 -193 -154 0
-233 -194 -155 0
-234 -195 -156 0
-232 -196 -157 0
-233 -197 -158 0
-234 -198 -159 0
-232 -199 -160 0
-233 -200 -161 0
-234 -201 -162 0
-232 -202 -163 0
-233 -203 -164 0
-234 -204 -165 0
-232 -205 -166 0
-233 -206 -167 0
-234 -207 -168 0
-232 -208 -169 0
-233 -209 -170 0
-234 -210 -171 0
-232 -211 -172 0
-233 -212 -173 0
-234 -213 -174 0
-232 -214 -175 0
-233 -215 -176 0
-234 -216 -177 0
-232 -217 -178 0
-233 -218 -179 0
-234 -219 -180 0
-232 -220 -181 0
-233 -221 -182 0
-234 -222 -183 0
-232 -223 -184 0
-233 -224 -185 0
-234 -225 -186 0
-232 -226 -187 0
-233 -227 -188 0
-234 -228 -189 0
-232 -229 -190 0
-233 -230 -191 0
-234 -231 -192 0
-232 -193 0
-233 -194 0
-234 -195 0
-235 -232 -196 0
-236 -233 -197 0
-237 -234 -198 0
-238 -232 -199 0
-239 -233 -200 0
-240 -234 -201 0
-241 -232 -202 0
-242 -233 -203 0
-243 -234 -204 0
-244 -232 -205 0
-245 -233 -206 0
-246 -234 -207 0
-247 -232 -208 0
-248 -233 -209 0
-249 -234 -210 0
-250 -232 -211 0
-251 -233 -212 0
-252 -234 -213 0
-253 -232 -214 0
-254 -233 -215 0
-255 -234 -216 0
-256 -232 -217 0
-257 -233 -218 0
-258 -234 -219 0
-259 -232 -220 0
-260 -233 -221 0
-261 -234 -222 0
-262 -232 -223 0
-263 -233 -224 0
-264 -234 -225 0
-265 -232 -226 0
-266 -233 -227 0
-267 -234 -228 0
-268 -232 -229 0
-269 -233 -230 0
-270 -234 -231 0
-271 -232 0
-272 -233 0
-273 -234 0
-274 -235 -232 0
-275 -236 -233 0
-276 -237 -234 0
-277 -238 -232 0
-278 -239 -233 0
-279 -240 -234 0
-280 -241 -232 0
-281 -242 -233 0
-282 -243 -234 0
-283 -244 -232 0
-284 -245 -233 0
-285 -246 -234 0
-286 -247 -232 0
-287 -248 -233 0
-288 -249 -234 0
-289 -250 -232 0
-290 -251 -233 0
-291 -252 -234 0
-292 -253 -232 0
-293 -254 -233 0
-294 -255 -234 0
-295 -256 -232 0
-296 -257 -233 0
-297 -258 -234 0
-298 -259 -232 0
-299 -260 -233 0
-300 -261 -234 0
-301 -262 -232 0
-302 -263 -233 0
-303 -264 -234 0
-304 -265 -232 0
-305 -266 -233 0
-306 -267 -234 0
-307 -268 -232 0
-308 -269 -233 0
-309 -270 -234 0
-310 -271 -232 0
-311 -272 -233 0
-312 -273 -234 0
-313 -274 -232 0
-314 -275 -233 0
-315 -276 -234 0
-316 -277 -232 0
-317 -278 -233 0
-318 -279 -234 0
-319 -280 -232 0
-320 -281 -233 0
-321 -282 -234 0
-322 -283 -232 0
-323 -284 -233 0
-324 -285 -234 0
-325 -286 -232 0
-326 -287 -233 0
-327 -288 -234 0
-328 -289 -232 0
-329 -290 -233 0
-330 -291 -234 0
-331 -292 -232 0
-332 -293 -233 0
-333 -294 -234 0
-334 -295 -232 0
-335 -296 -233 0
-336 -297 -234 0
-337 -298 -232 0
-338 -299 -233 0
-339 -300 -234 0
-340 -301 -232 0
-341 -302 -233 0
-342 -303 -234 0
-343 -304 -232 0
-344 -305 -233 0
-345 -306 -234 0
-346 -307 -232 0
-347 -308 -233 0
-348 -309 -234 0
-349 -310 -232 0
-350 -311 -233 0
-351 -312 -234 0
-352 -313 -232 0
-353 -314 -233 0
-354 -315 -234 0
-355 -316 -232 0
-356 -317 -233 0
-357 -318 -234 0
-358 -319 -232 0
-359 -320 -233 0
-360 -321 -234 0
-361 -322 -232 0
-362 -323 -233 0
-363 -324 -234 0
-364 -325 -232 0
-365 -326 -233 0
-366 -327 -234 0
-367 -328 -232 0
-368 -329 -233 0
-369 -330 -234 0
-370 -331 -232 0
-371 -332 -233 0
-372 -333 -234 0
-373 -334 -232 0
-374 -335 -233 0
-375 -336 -234 0
-376 -337 -232 0
-377 -338 -233 0
-378 -339 -234 0
-379 -340 -232 0
-380 -341 -233 0
-381 -342 -234 0
-382 -343 -232 0
-383 -344 -233 0
-384 -345 -234 0
-385 -346 -232 0
-386 -347 -233 0
-387 -348 -234 0
-388 -349 -232 0
-389 -350 -233 0
-390 -351 -234 0
-391 -352 -232 0
-392 -353 -233 0
-393 -354 -234 0
-394 -355 -232 0
-395 -356 -233 0
-396 -357 -234 0
-397 -358 -232 0
-398 -359 -233 0
-399 -360 -234 0
-400 -361 -232 0
-401 -362 -233 0
-402 -363 -234 0
-403 -364 -232 0
-404 -365 -233 0
-405 -366 -234 0
-406 -367 -232 0
-407 -368 -233 0
-408 -369 -234 0
-409 -370 -232 0
-410 -371 -233 0
-411 -372 -234 0
-412 -373 -232 0
-413 -374 -233 0
-414 -375 -234 0
-415 -376 -232 0
-416 -377 -233 0
-417 -378 -234 0
-418 -379 -232 0
-419 -380 -233 0
-420 -381 -234 0
-421 -382 -232 0
-422 -383 -233 0
-423 -384 -234 0
-424 -385 -232 0
-425 -386 -233 0
-426 -387 -234 0
-427 -388 -232 0
-428 -389 -233 0
-429 -390 -234 0
-430 -391 -232 0
-431 -392 -233 0
-432 -393 -234 0
-433 -394 -232 0
-434 -395 -233 0
-435 -396 -234 0
-436 -397 -232 0
-437 -398 -233 0
-438 -399 -234 0
-439 -400 -232 0
-440 -401 -233 0
-441 -402 -234 0
-442 -403 -232 0
-443 -404 -233 0
-444 -405 -234 0
-445 -406 -232 0
-446 -407 -233 0
-447 -408 -234 0
-448 -409 -232 0
-449 -410 -233 0
-450 -411 -234 0
-451 -412 -232 0
-452 -413 -233 0
-453 -414 -234 0
-454 -415 -232 0
-455 -416 -233 0
-456 -417 -234 0
-457 -418 -232 0
-458 -419 -233 0
-459 -420 -234 0
-460 -421 -232 0
-461 -422 -233 0
-462 -423 -234 0
-463 -424 -232 0
-464 -425 -233 0
-465 -426 -234 0
-466 -427 -232 0
-467 -428 -233 0
-468 -429 -234 0
-469 -430 -232 0
-470 -431 -233 0
-471 -432 -234 0
-472 -433 -232 0
-473 -434 -233 0
-474 -435 -234 0
-475 -436 -232 0
-476 -437 -233 0
-477 -438 -234 0
-478 -439 -232 0
-479 -440 -233 0
-480 -441 -234 0
-481 -442 -232 0
-482 -443 -233 0
-483 -444 -234 0
-484 -445 -232 0
-485 -446 -233 0
-486 -447 -234 0
-487 -448 -232 0
-488 -449 -233 0
-489 -450 -234 0
-490 -451 -232 0
-491 -452 -233 0
-492 -453 -234 0
-493 -454 -232 0
-494 -455 -233 0
-495 -456 -234 0
-496 -457 -232 0
-497 -458 -233 0
-498 -459 -234 0
-499 -460 -232 0
-500 -461 -233 0
-501 -462 -234 0
-502 -463 -232 0
-503 -464 -233 0
-504 -465 -234 0
-505 -466 -232 0
-506 -467 -233 0
-507 -468 -234 0
-508 -469 -232 0
-509 -470 -233 0
-510 -471 -234 0
-511 -472 -232 0
-512 -473 -233 0
-513 -474 -234 0
-514 -475 -232 0
-515 -476 -233 0
-516 -477 -234 0
-517 -478 -232 0
-518 -479 -233 0
-519 -480 -234 0
-520 -481 -232 0
-521 -482 -233 0
-522 -483 -234 0
-523 -484 -232 0
-524 -485 -233 0
-525 -486 -234 0
-526 -487 -232 0
-527 -488 -233 0
-528 -489 -234 0
-529 -490 -232 0
-530 -491 -233 0
-531 -492 -234 0
-532 -493 -232 0
-533 -494 -233 0
-534 -495 -234 0
-535 -496 -232 0
-536 -497 -233 0
-537 -498 -234 0
-538 -499 -232 0
-539 -500 -233 0
-540 -501 -234 0
-541 -502 -232 0
-542 -503 -233 0
-543 -504 -234 0
-544 -505 -232 0
-545 -506 -233 0
-546 -507 -234 0
-547 -508 -232 0
-548 -509 -233 0
-549 -510 -234 0
-550 -511 -232 0
-551 -512 -233 0
-552 -513 -234 0
-553 -514 -232 0
-554 -515 -233 0
-555 -516 -234 0
-556 -517 -232 0
-557 -518 -233 0
-558 -519 -234 0
-559 -520 -232 0
-560 -521 -233 0
-561 -522 -234 0
-562 -523 -232 0
-563 -524 -233 0
-564 -525 -234 0
-565 -526 -232 0
-566 -527 -233 0
-567 -528 -234 0
-568 -529 -232 0
-569 -530 -233 0
-570 -531 -234 0
-571 -532 -232 0
-572 -533 -233 0
-573 -534 -234 0
-574 -535 -232 0
-575 -536 -233 0
-576 -537 -234 0
-577 -538 -232 0
-578 -539 -233 0
-579 -540 -234 0
-580 -541 -232 0
-581 -542 -233 0
-582 -543 -234 0
-583 -544 -232 0
-584 -545 -233 0
-585 -546 -234 0
-586 -547 -232 0
-587 -548 -233 0
-588 -549 -234 0
-589 -550 -232 0
-590 -551 -233 0
-591 -552 -234 0
-592 -553 -232 0
-593 -554 -233 0
-594 -555 -234 0
-595 -556 -232 0
-596 -557 -233 0
-597 -558 -234 0
-598 -559 -232 0
-599 -560 -233 0
-600 -561 -234 0
-601 -562 -232 0
-602 -563 -233 0
-603 -564 -234 0
-604 -565 -232 0
-605 -566 -233 0
-606 -567 -234 0
-607 -568 -232 0
-608 -569 -233 0
-609 -570 -234 0
-610 -571 -232 0
-611 -572 -233 0
-612 -573 -234 0
-613 -574 -232 0
-614 -575 -233 0
-615 -576 -234 0
-616 -577 -232 0
-617 -578 -233 0
-618 -579 -234 0
-619 -580 -232 0
-620 -581 -233 0
-621 -582 -234 0
-622 -583 -232 0
-623 -584 -233 0
-624 -585 -234 0
-625 -586 -232 0
-626 -587 -233 0
-627 -588 -234 0
-628 -589 -232 0
-629 -590 -233 0
-630 -591 -234 0
-631 -592 -232 0
-632 -593 -233 0
-633 -594 -234 0
-634 -595 -232 0
-635 -596 -233 0
-636 -597 -234 0
-637 -598 -232 0
-638 -599 -233 0
-639 -600 -234 0
-640 -601 -232 0
-641 -602 -233 0
-642 -603 -234 0
-643 -604 -232 0
-644 -605 -233 0
-645 -606 -234 0
-646 -607 -232 0
-647 -608 -233 0
-648 -609 -234 0
-250 -43 -1 0
-251 -44 -2 0
-252 -45 -3 0
-250 -46 -4 0
-251 -47 -5 0
-252 -48 -6 0
-250 -49 -7 0
-251 -50 -8 0
-252 -51 -9 0
-250 -52 -10 0
-251 -53 -11 0
-252 -54 -12 0
-250 -55 -13 0
-251 -56 -14 0
-252 -57 -15 0
-250 -58 -16 0
-251 -59 -17 0
-252 -60 -18 0
-250 -61 -19 0
-251 -62 -20 0
-252 -63 -21 0
-250 -64 -22 0
-251 -65 -23 0
-252 -66 -24 0
-250 -67 -25 0
-251 -68 -26 0
-252 -69 -27 0
-250 -70 -28 0
-251 -71 -29 0
-252 -72 -30 0
-250 -73 -31 0
-251 -74 -32 0
-252 -75 -33 0
-250 -76 -34 0
-251 -77 -35 0
-252 -78 -36 0
-250 -79 -37 0
-251 -80 -38 0
-252 -81 -39 0
-250 -82 -40 0
-251 -83 -41 0
-252 -84 -42 0
-250 -85 -43 0
-251 -86 -44 0
-252 -87 -45 0
-250 -88 -46 0
-251 -89 -47 0
-252 -90 -48 0
-250 -91 -49 0
-251 -92 -50 0
-252 -93 -51 0
-250 -94 -52 0
-251 -95 -53 0
-252 -96 -54 0
-250 -97 -55 0
-251 -98 -56 0
-252 -99 -57 0
-250 -100 -58 0
-251 -101 -59 0
-252 -102 -60 0
-250 -103 -61 0
-251 -104 -62 0
-252 -105 -63 0
-250 -106 -64 0
-251 -107 -65 0
-252 -108 -66 0
-250 -109 -67 0
-251 -110 -68 0
-252 -111 -69 0
-250 -112 -70 0
-251 -113 -71 0
-252 -114 -72 0
-250 -115 -73 0
-251 -116 -74 0
-252 -117 -75 0
-250 -118 -76 0
-251 -119 -77 0
-252 -120 -78 0
-250 -121 -79 0
-251 -122 -80 0
-252 -123 -81 0
-250 -124 -82 0
-251 -125 -83 0
-252 -126 -84 0
-250 -127 -85 0
-251 -128 -86 0
-252 -129 -87 0
-250 -130 -88 0
-251 -131 -89 0
-252 -132 -90 0
-250 -133 -91 0
-251 -134 -92 0
-252 -135 -93 0
-250 -136 -94 0
-251 -137 -95 0
-252 -138 -96 0
-250 -139 -97 0
-251 -140 -98 0
-252 -141 -99 0
-250 -142 -100 0
-251 -143 -101 0
-252 -144 -102 0
-250 -145 -103 0
-251 -146 -104 0
-252 -147 -105 0
-250 -148 -106 0
-251 -149 -107 0
-252 -150 -108 0
-250 -151 -109 0
-251 -152 -110 0
-252 -153 -111 0
-250 -154 -112 0
-251 -155 -113 0
-252 -156 -114 0
-250 -157 -115 0
-251 -158 -116 0
-252 -159 -117 0
-250 -160 -118 0
-251 -161 -119 0
-252 -162 -120 0
-250 -163 -121 0
-251 -164 -122 0
-252 -165 -123 0
-250 -166 -124 0
-251 -167 -125 0
-252 -168 -126 0
-250 -169 -127 0
-251 -170 -128 0
-252 -171 -129 0
-250 -172 -130 0
-251 -173 -131 0
-252 -174 -132 0
-250 -175 -133 0
-251 -176 -134 0
-252 -177 -135 0
-250 -178 -136 0
-251 -179 -137 0
-252 -180 -138 0
-250 -181 -139 0
-251 -182 -140 0
-252 -183 -141 0
-250 -184 -142 0
-251 -185 -143 0
-252 -186 -144 0
-250 -187 -145 0
-251 -188 -146 0
-252 -189 -147 0
-250 -190 -148 0
-251 -191 -149 0
-252 -192 -150 0
-250 -193 -151 0
-251 -194 -152 0
-252 -195 -153 0
-250 -196 -154 0
-251 -197 -155 0
-252 -198 -156 0
-250 -199 -157 0
-251 -200 -158 0
-252 -201 -159 0
-250 -202 -160 0
-251 -203 -161 0
-252 -204 -162 0
-250 -205 -163 0
-251 -206 -164 0
-252 -207 -165 0
-250 -208 -166 0
-251 -209 -167 0
-252 -210 -168 0
-250 -211 -169 0
-251 -212 -170 0
-252 -213 -171 0
-250 -214 -172 0
-251 -215 -173 0
-252 -216 -174 0
-250 -217 -175 0
-251 -218 -176 0
-252 -219 -177 0
-250 -220 -178 0
-251 -221 -179 0
-252 -222 -180 0
-250 -223 -181 0
-251 -224 -182 0
-252 -225 -183 0
-250 -226 -184 0
-251 -227 -185 0
-252 -228 -186 0
-250 -229 -187 0
-251 -230 -188 0
-252 -231 -189 0
-250 -232 -190 0
-251 -233 -191 0
-252 -234 -192 0
-250 -235 -193 0
-251 -236 -194 0
-252 -237 -195 0
-250 -238 -196 0
-251 -239 -197 0
-252 -240 -198 0
-250 -241 -199 0
-251 -242 -200 0
-252 -243 -201 0
-250 -244 -202 0
-251 -245 -203 0
-252 -246 -204 0
-250 -247 -205 0
-251 -248 -206 0
-252 -249 -207 0
-250 -208 0
-251 -209 0
-252 -210 0
-253 -250 -211 0
-254 -251 -212 0
-255 -252 -213 0
-256 -250 -214 0
-257 -251 -215 0
-258 -252 -216 0
-259 -250 -217 0
-260 -251 -218 0
-261 -252 -219 0
-262 -250 -220 0
-263 -251 -221 0
-264 -252 -222 0
-265 -250 -223 0
-266 -251 -224 0
-267 -252 -225 0
-268 -250 -226 0
-269 -251 -227 0
-270 -252 -228 0
-271 -250 -229 0
-272 -251 -230 0
-273 -252 -231 0
-274 -250 -232 0
-275 -251 -233 0
-276 -252 -234 0
-277 -250 -235 0
-278 -251 -236 0
-279 -252 -237 0
-280 -250 -238 0
-281 -251 -239 0
-282 -252 -240 0
-283 -250 -241 0
-284 -251 -242 0
-285 -252 -243 0
-286 -250 -244 0
-287 -251 -245 0
-288 -252 -246 0
-289 -250 -247 0
-290 -251 -248 0
-291 -252 -249 0
-292 -250 0
-293 -251 0
-294 -252 0
-295 -253 -250 0
-296 -254 -251 0
-297 -255 -252 0
-298 -256 -250 0
-299 -257 -251 0
-300 -258 -252 0
-301 -259 -250 0
-302 -260 -251 0
-303 -261 -252 0
-304 -262 -250 0
-305 -263 -251 0
-306 -264 -252 0
-307 -265 -250 0
-308 -266 -251 0
-309 -267 -252 0
-310 -268 -250 0
-311 -269 -251 0
-312 -270 -252 0
-313 -271 -250 0
-314 -272 -251 0
-315 -273 -252 0
-316 -274 -250 0
-317 -275 -251 0
-318 -276 -252 0
-319 -277 -250 0
-320 -278 -251 0
-321 -279 -252 0
-322 -280 -250 0
-323 -281 -251 0
-324 -282 -252 0
-325 -283 -250 0
-326 -284 -251 0
-327 -285 -252 0
-328 -286 -250 0
-329 -287 -251 0
-330 -288 -252 0
-331 -289 -250 0
-332 -290 -251 0
-333 -291 -252 0
-334 -292 -250 0
-335 -293 -251 0
-336 -294 -252 0
-337 -295 -250 0
-338 -296 -251 0
-339 -297 -252 0
-340 -298 -250 0
-341 -299 -251 0
-342 -300 -252 0
-343 -301 -250 0
-344 -302 -251 0
-345 -303 -252 0
-346 -304 -250 0
-347 -305 -251 0
-348 -306 -252 0
-349 -307 -250 0
-350 -308 -251 0
-351 -309 -252 0
-352 -310 -250 0
-353 -311 -251 0
-354 -312 -252 0
-355 -313 -250 0
-356 -314 -251 0
-357 -315 -252 0
-358 -316 -250 0
-359 -317 -251 0
-360 -318 -252 0
-361 -319 -250 0
-362 -320 -251 0
-363 -321 -252 0
-364 -322 -250 0
-365 -323 -251 0
-366 -324 -252 0
-367 -325 -250 0
-368 -326 -251 0
-369 -327 -252 0
-370 -328 -250 0
-371 -329 -251 0
-372 -330 -252 0
-373 -331 -250 0
-374 -332 -251 0
-375 -333 -252 0
-376 -334 -250 0
-377 -335 -251 0
-378 -336 -252 0
-379 -337 -250 0
-380 -338 -251 0
-381 -339 -252 0
-382 -340 -250 0
-383 -341 -251 0
-384 -342 -252 0
-385 -343 -250 0
-386 -344 -251 0
-387 -345 -252 0
-388 -346 -250 0
-389 -347 -251 0
-390 -348 -252 0
-391 -349 -250 0
-392 -350 -251 0
-393 -351 -252 0
-394 -352 -250 0
-395 -353 -251 0
-396 -354 -252 0
-397 -355 -250 0
-398 -356 -251 0
-399 -357 -252 0
-400 -358 -250 0
-401 -359 -251 0
-402 -360 -252 0
-403 -361 -250 0
-404 -362 -251 0
-405 -363 -252 0
-406 -364 -250 0
-407 -365 -251 0
-408 -366 -252 0
-409 -367 -250 0
-410 -368 -251 0
-411 -369 -252 0
-412 -370 -250 0
-413 -371 -251 0
-414 -372 -252 0
-415 -373 -250 0
-416 -374 -251 0
-417 -375 -252 0
-418 -376 -250 0
-419 -377 -251 0
-420 -378 -252 0
-421 -379 -250 0
-422 -380 -251 0
-423 -381 -252 0
-424 -382 -250 0
-425 -383 -251 0
-426 -384 -252 0
-427 -385 -250 0
-428 -386 -251 0
-429 -387 -252 0
-430 -388 -250 0
-431 -389 -251 0
-432 -390 -252 0
-433 -391 -250 0
-434 -392 -251 0
-435 -393 -252 0
-436 -394 -250 0
-437 -395 -251 0
-438 -396 -252 0
-439 -397 -250 0
-440 -398 -251 0
-441 -399 -252 0
-442 -400 -250 0
-443 -401 -251 0
-444 -402 -252 0
-445 -403 -250 0
-446 -404 -251 0
-447 -405 -252 0
-448 -406 -250 0
-449 -407 -251 0
-450 -408 -252 0
-451 -409 -250 0
-452 -410 -251 0
-453 -411 -252 0
-454 -412 -250 0
-455 -413 -251 0
-456 -414 -252 0
-457 -415 -250 0
-458 -416 -251 0
-459 -417 -252 0
-460 -418 -250 0
-461 -419 -251 0
-462 -420 -252 0
-463 -421 -250 0
-464 -422 -251 0
-465 -423 -252 0
-466 -424 -250 0
-467 -425 -251 0
-468 -426 -252 0
-469 -427 -250 0
-470 -428 -251 0
-471 -429 -252 0
-472 -430 -250 0
-473 -431 -251 0
-474 -432 -252 0
-475 -433 -250 0
-476 -434 -251 0
-477 -435 -252 0
-478 -436 -250 0
-479 -437 -251 0
-480 -438 -252 0
-481 -439 -250 0
-482 -440 -251 0
-483 -441 -252 0
-484 -442 -250 0
-485 -443 -251 0
-486 -444 -252 0
-487 -445 -250 0
-488 -446 -251 0
-489 -447 -252 0
-490 -448 -250 0
-491 -449 -251 0
-492 -450 -252 0
-493 -451 -250 0
-494 -452 -251 0
-495 -453 -252 0
-496 -454 -250 0
-497 -455 -251 0
-498 -456 -252 0
-499 -457 -250 0
-500 -458 -251 0
-501 -459 -252 0
-502 -460 -250 0
-503 -461 -251 0
-504 -462 -252 0
-505 -463 -250 0
-506 -464 -251 0
-507 -465 -252 0
-508 -466 -250 0
-509 -467 -251 0
-510 -468 -252 0
-511 -469 -250 0
-512 -470 -251 0
-513 -471 -252 0
-514 -472 -250 0
-515 -473 -251 0
-516 -474 -252 0
-517 -475 -250 0
-518 -476 -251 0
-519 -477 -252 0
-520 -478 -250 0
-521 -479 -251 0
-522 -480 -252 0
-523 -481 -250 0
-524 -482 -251 0
-525 -483 -252 0
-526 -484 -250 0
-527 -485 -251 0
-528 -486 -252 0
-529 -487 -250 0
-530 -488 -251 0
-531 -489 -252 0
-532 -490 -250 0
-533 -491 -251 0
-534 -492 -252 0
-535 -493 -250 0
-536 -494 -251 0
-537 -495 -252 0
-538 -496 -250 0
-539 -497 -251 0
-540 -498 -252 0
-541 -499 -250 0
-542 -500 -251 0
-543 -501 -252 0
-544 -502 -250 0
-545 -503 -251 0
-546 -504 -252 0
-547 -505 -250 0
-548 -506 -251 0
-549 -507 -252 0
-550 -508 -250 0
-551 -509 -251 0
-552 -510 -252 0
-553 -511 -250 0
-554 -512 -251 0
-555 -513 -252 0
-556 -514 -250 0
-557 -515 -251 0
-558 -516 -252 0
-559 -517 -250 0
-560 -518 -251 0
-561 -519 -252 0
-562 -520 -250 0
-563 -521 -251 0
-564 -522 -252 0
-565 -523 -250 0
-566 -524 -251 0
-567 -525 -252 0
-568 -526 -250 0
-569 -527 -251 0
-570 -528 -252 0
-571 -529 -250 0
-572 -530 -251 0
-573 -531 -252 0
-574 -532 -250 0
-575 -533 -251 0
-576 -534 -252 0
-577 -535 -250 0
-578 -536 -251 0
-579 -537 -252 0
-580 -538 -250 0
-581 -539 -251 0
-582 -540 -252 0
-583 -541 -250 0
-584 -542 -251 0
-585 -543 -252 0
-586 -544 -250 0
-587 -545 -251 0
-588 -546 -252 0
-589 -547 -250 0
-590 -548 -251 0
-591 -549 -252 0
-592 -550 -250 0
-593 -551 -251 0
-594 -552 -252 0
-595 -553 -250 0
-596 -554 -251 0
-597 -555 -252 0
-598 -556 -250 0
-599 -557 -251 0
-600 -558 -252 0
-601 -559 -250 0
-602 -560 -251 0
-603 -561 -252 0
-604 -562 -250 0
-605 -563 -251 0
-606 -564 -252 0
-607 -565 -250 0
-608 -566 -251 0
-609 -567 -252 0
-610 -568 -250 0
-611 -569 -251 0
-612 -570 -252 0
-613 -571 -250 0
-614 -572 -251 0
-615 -573 -252 0
-616 -574 -250 0
-617 -575 -251 0
-618 -576 -252 0
-619 -577 -250 0
-620 -578 -251 0
-621 -579 -252 0
-622 -580 -250 0
-623 -581 -251 0
-624 -582 -252 0
-625 -583 -250 0
-626 -584 -251 0
-627 -585 -252 0
-628 -586 -250 0
-629 -587 -251 0
-630 -588 -252 0
-631 -589 -250 0
-632 -590 -251 0
-633 -591 -252 0
-634 -592 -250 0
-635 -593 -251 0
-636 -594 -252 0
-637 -595 -250 0
-638 -596 -251 0
-639 -597 -252 0
-640 -598 -250 0
-641 -599 -251 0
-642 -600 -252 0
-643 -601 -250 0
-644 -602 -251 0
-645 -603 -252 0
-646 -604 -250 0
-647 -605 -251 0
-648 -606 -252 0
-268 -46 -1 0
-269 -47 -2 0
-270 -48 -3 0
-268 -49 -4 0
-269 -50 -5 0
-270 -51 -6 0
-268 -52 -7 0
-269 -53 -8 0
-270 -54 -9 0
-268 -55 -10 0
-269 -56 -11 0
-270 -57 -12 0
-268 -58 -13 0
-269 -59 -14 0
-270 -60 -15 0
-268 -61 -16 0
-269 -62 -17 0
-270 -63 -18 0
-268 -64 -19 0
-269 -65 -20 0
-270 -66 -21 0
-268 -67 -22 0
-269 -68 -23 0
-270 -69 -24 0
-268 -70 -25 0
-269 -71 -26 0
-270 -72 -27 0
-268 -73 -28 0
-269 -74 -29 0
-270 -75 -30 0
-268 -76 -31 0
-269 -77 -32 0
-270 -78 -33 0
-268 -79 -34 0
-269 -80 -35 0
-270 -81 -36 0
-268 -82 -37 0
-269 -83 -38 0
-270 -84 -39 0
-268 -85 -40 0
-269 -86 -41 0
-270 -87 -42 0
-268 -88 -43 0
-269 -89 -44 0
-270 -90 -45 0
-268 -91 -46 0
-269 -92 -47 0
-270 -93 -48 0
-268 -94 -49 0
-269 -95 -50 0
-270 -96 -51 0
-268 -97 -52 0
-269 -98 -53 0
-270 -99 -54 0
-268 -100 -55 0
-269 -101 -56 0
-270 -102 -57 0
-268 -103 -58 0
-269 -104 -59 0
-270 -105 -60 0
-268 -106 -61 0
-269 -107 -62 0
-270 -108 -63 0
-268 -109 -64 0
-269 -110 -65 0
-270 -111 -66 0
-268 -112 -67 0
-269 -113 -68 0
-270 -114 -69 0
-268 -115 -70 0
-269 -116 -71 0
-270 -117 -72 0
-268 -118 -73 0
-269 -119 -74 0
-270 -120 -75 0
-268 -121 -76 0
-269 -122 -77 0
-270 -123 -78 0
-268 -124 -79 0
-269 -125 -80 0
-270 -126 -81 0
-268 -127 -82 0
-269 -128 -83 0
-270 -129 -84 0
-268 -130 -85 0
-269 -131 -86 0
-270 -132 -87 0
-268 -133 -88 0
-269 -134 -89 0
-270 -135 -90 0
-268 -136 -91 0
-269 -137 -92 0
-270 -138 -93 0
-268 -139 -94 0
-269 -140 -95 0
-270 -141 -96 0
-268 -142 -97 0
-269 -143 -98 0
-270 -144 -99 0
-268 -145 -100 0
-269 -146 -101 0
-270 -147 -102 0
-268 -148 -103 0
-269 -149 -104 0
-270 -150 -105 0
-268 -151 -106 0
-269 -152 -107 0
-270 -153 -108 0
-268 -154 -109 0
-269 -155 -110 0
-270 -156 -111 0
-268 -157 -112 0
-269 -158 -113 0
-270 -159 -114 0
-268 -160 -115 0
-269 -161 -116 0
-270 -162 -117 0
-268 -163 -118 0
-269 -164 -119 0
-270 -165 -120 0
-268 -166 -121 0
-269 -167 -122 0
-270 -168 -123 0
-268 -169 -124 0
-269 -170 -125 0
-270 -171 -126 0
-268 -172 -127 0
-269 -173 -128 0
-270 -174 -129 0
-268 -175 -130 0
-269 -176 -131 0
-270 -177 -132 0
-268 -178 -133 0
-269 -179 -134 0
-270 -180 -135 0
-268 -181 -136 0
-269 -182 -137 0
-270 -183 -138 0
-268 -184 -139 0
-269 -185 -140 0
-270 -186 -141 0
-268 -187 -142 0
-269 -188 -143 0
-270 -189 -144 0
-268 -190 -145 0
-269 -191 -146 0
-270 -192 -147 0
-268 -193 -148 0
-269 -194 -149 0
-270 -195 -150 0
-268 -196 -151 0
-269 -197 -152 0
-270 -198 -153 0
-268 -199 -154 0
-269 -200 -155 0
-270 -201 -156 0
-268 -202 -157 0
-269 -203 -158 0
-270 -204 -159 0
-268 -205 -160 0
-269 -206 -161 0
-270 -207 -162 0
-268 -208 -163 0
-269 -209 -164 0
-270 -210 -165 0
-268 -211 -166 0
-269 -212 -167 0
-270 -213 -168 0
-268 -214 -169 0
-269 -215 -170 0
-270 -216 -171 0
-268 -217 -172 0
-269 -218 -173 0
-270 -219 -174 0
-268 -220 -175 0
-269 -221 -176 0
-270 -222 -177 0
-268 -223 -178 0
-269 -224 -179 0
-270 -225 -180 0
-268 -226 -181 0
-269 -227 -182 0
-270 -228 -183 0
-268 -229 -184 0
-269 -230 -185 0
-270 -231 -186 0
-268 -232 -187 0
-269 -233 -188 0
-270 -234 -189 0
-268 -235 -190 0
-269 -236 -191 0
-270 -237 -192 0
-268 -238 -193 0
-269 -239 -194 0
-270 -240 -195 0
-268 -241 -196 0
-269 -242 -197 0
-270 -243 -198 0
-268 -244 -199 0
-269 -245 -200 0
-270 -246 -201 0
-268 -247 -202 0
-269 -248 -203 0
-270 -249 -204 0
-268 -250 -205 0
-269 -251 -206 0
-270 -252 -207 0
-268 -253 -208 0
-269 -254 -209 0
-270 -255 -210 0
-268 -256 -211 0
-269 -257 -212 0
-270 -258 -213 0
-268 -259 -214 0
-269 -260 -215 0
-270 -261 -216 0
-268 -262 -217 0
-269 -263 -218 0
-270 -264 -219 0
-268 -265 -220 0
-269 -266 -221 0
-270 -267 -222 0
-268 -223 0
-269 -224 0
-270 -225 0
-271 -268 -226 0
-272 -269 -227 0
-273 -270 -228 0
-274 -268 -229 0
-275 -269 -230 0
-276 -270 -231 0
-277 -268 -232 0
-278 -269 -233 0
-279 -270 -234 0
-280 -268 -235 0
-281 -269 -236 0
-282 -270 -237 0
-283 -268 -238 0
-284 -269 -239 0
-285 -270 -240 0
-286 -268 -241 0
-287 -269 -242 0
-288 -270 -243 0
-289 -268 -244 0
-290 -269 -245 0
-291 -270 -246 0
-292 -268 -247 0
-293 -269 -248 0
-294 -270 -249 0
-295 -268 -250 0
-296 -269 -251 0
-297 -270 -252 0
-298 -268 -253 0
-299 -269 -254 0
-300 -270 -255 0
-301 -268 -256 0
-302 -269 -257 0
-303 -270 -258 0
-304 -268 -259 0
-305 -269 -260 0
-306 -270 -261 0
-307 -268 -262 0
-308 -269 -263 0
-309 -270 -264 0
-310 -268 -265 0
-311 -269 -266 0
-312 -270 -267 0
-313 -268 0
-314 -269 0
-315 -270 0
-316 -271 -268 0
-317 -272 -269 0
-318 -273 -270 0
-319 -274 -268 0
-320 -275 -269 0
-321 -276 -270 0
-322 -277 -268 0
-323 -278 -269 0
-324 -279 -270 0
-325 -280 -268 0
-326 -281 -269 0
-327 -282 -270 0
-328 -283 -268 0
-329 -284 -269 0
-330 -285 -270 0
-331 -286 -268 0
-332 -287 -269 0
-333 -288 -270 0
-334 -289 -268 0
-335 -290 -269 0
-336 -291 -270 0
-337 -292 -268 0
-338 -293 -269 0
-339 -294 -270 0
-340 -295 -268 0
-341 -296 -269 0
-342 -297 -270 0
-343 -298 -268 0
-344 -299 -269 0
-345 -300 -270 0
-346 -301 -268 0
-347 -302 -269 0
-348 -303 -270 0
-349 -304 -268 0
-350 -305 -269 0
-351 -306 -270 0
-352 -307 -268 0
-353 -308 -269 0
-354 -309 -270 0
-355 -310 -268 0
-356 -311 -269 0
-357 -312 -270 0
-358 -313 -268 0
-359 -314 -269 0
-360 -315 -270 0
-361 -316 -268 0
-362 -317 -269 0
-363 -318 -270 0
-364 -319 -268 0
-365 -320 -269 0
-366 -321 -270 0
-367 -322 -268 0
-368 -323 -269 0
-369 -324 -270 0
-370 -325 -268 0
-371 -326 -269 0
-372 -327 -270 0
-373 -328 -268 0
-374 -329 -269 0
-375 -330 -270 0
-376 -331 -268 0
-377 -332 -269 0
-378 -333 -270 0
-379 -334 -268 0
-380 -335 -269 0
-381 -336 -270 0
-382 -337 -268 0
-383 -338 -269 0
-384 -339 -270 0
-385 -340 -268 0
-386 -341 -269 0
-387 -342 -270 0
-388 -343 -268 0
-389 -344 -269 0
-390 -345 -270 0
-391 -346 -268 0
-392 -347 -269 0
-393 -348 -270 0
-394 -349 -268 0
-395 -350 -269 0
-396 -351 -270 0
-397 -352 -268 0
-398 -353 -269 0
-399 -354 -270 0
-400 -355 -268 0
-401 -356 -269 0
-402 -357 -270 0
-403 -358 -268 0
-404 -359 -269 0
-405 -360 -270 0
-406 -361 -268 0
-407 -362 -269 0
-408 -363 -270 0
-409 -364 -268 0
-410 -365 -269 0
-411 -366 -270 0
-412 -367 -268 0
-413 -368 -269 0
-414 -369 -270 0
-415 -370 -268 0
-416 -371 -269 0
-417 -372 -270 0
-418 -373 -268 0
-419 -374 -269 0
-420 -375 -270 0
-421 -376 -268 0
-422 -377 -269 0
-423 -378 -270 0
-424 -379 -268 0
-425 -380 -269 0
-426 -381 -270 0
-427 -382 -268 0
-428 -383 -269 0
-429 -384 -270 0
-430 -385 -268 0
-431 -386 -269 0
-432 -387 -270 0
-433 -388 -268 0
-434 -389 -269 0
-435 -390 -270 0
-436 -391 -268 0
-437 -392 -269 0
-438 -393 -270 0
-439 -394 -268 0
-440 -395 -269 0
-441 -396 -270 0
-442 -397 -268 0
-443 -398 -269 0
-444 -399 -270 0
-445 -400 -268 0
-446 -401 -269 0
-447 -402 -270 0
-448 -403 -268 0
-449 -404 -269 0
-450 -405 -270 0
-451 -406 -268 0
-452 -407 -269 0
-453 -408 -270 0
-454 -409 -268 0
-455 -410 -269 0
-456 -411 -270 0
-457 -412 -268 0
-458 -413 -269 0
-459 -414 -270 0
-460 -415 -268 0
-461 -416 -269 0
-462 -417 -270 0
-463 -418 -268 0
-464 -419 -269 0
-465 -420 -270 0
-466 -421 -268 0
-467 -422 -269 0
-468 -423 -270 0
-469 -424 -268 0
-470 -425 -269 0
-471 -426 -270 0
-472 -427 -268 0
-473 -428 -269 0
-474 -429 -270 0
-475 -430 -268 0
-476 -431 -269 0
-477 -432 -270 0
-478 -433 -268 0
-479 -434 -269 0
-480 -435 -270 0
-481 -436 -268 0
-482 -437 -269 0
-483 -438 -270 0
-484 -439 -268 0
-485 -440 -269 0
-486 -441 -270 0
-487 -442 -268 0
-488 -443 -269 0
-489 -444 -270 0
-490 -445 -268 0
-491 -446 -269 0
-492 -447 -270 0
-493 -448 -268 0
-494 -449 -269 0
-495 -450 -270 0
-496 -451 -268 0
-497 -452 -269 0
-498 -453 -270 0
-499 -454 -268 0
-500 -455 -269 0
-501 -456 -270 0
-502 -457 -268 0
-503 -458 -269 0
-504 -459 -270 0
-505 -460 -268 0
-506 -461 -269 0
-507 -462 -270 0
-508 -463 -268 0
-509 -464 -269 0
-510 -465 -270 0
-511 -466 -268 0
-512 -467 -269 0
-513 -468 -270 0
-514 -469 -268 0
-515 -470 -269 0
-516 -471 -270 0
-517 -472 -268 0
-518 -473 -269 0
-519 -474 -270 0
-520 -475 -268 0
-521 -476 -269 0
-522 -477 -270 0
-523 -478 -268 0
-524 -479 -269 0
-525 -480 -270 0
-526 -481 -268 0
-527 -482 -269 0
-528 -483 -270 0
-529 -484 -268 0
-530 -485 -269 0
-531 -486 -270 0
-532 -487 -268 0
-533 -488 -269 0
-534 -489 -270 0
-535 -490 -268 0
-536 -491 -269 0
-537 -492 -270 0
-538 -493 -268 0
-539 -494 -269 0
-540 -495 -270 0
-541 -496 -268 0
-542 -497 -269 0
-543 -498 -270 0
-544 -499 -268 0
-545 -500 -269 0
-546 -501 -270 0
-547 -502 -268 0
-548 -503 -269 0
-549 -504 -270 0
-550 -505 -268 0
-551 -506 -269 0
-552 -507 -270 0
-553 -508 -268 0
-554 -509 -269 0
-555 -510 -270 0
-556 -511 -268 0
-557 -512 -269 0
-558 -513 -270 0
-559 -514 -268 0
-560 -515 -269 0
-561 -516 -270 0
-562 -517 -268 0
-563 -518 -269 0
-564 -519 -270 0
-565 -520 -268 0
-566 -521 -269 0
-567 -522 -270 0
-568 -523 -268 0
-569 -524 -269 0
-570 -525 -270 0
-571 -526 -268 0
-572 -527 -269 0
-573 -528 -270 0
-574 -529 -268 0
-575 -530 -269 0
-576 -531 -270 0
-577 -532 -268 0
-578 -533 -269 0
-579 -534 -270 0
-580 -535 -268 0
-581 -536 -269 0
-582 -537 -270 0
-583 -538 -268 0
-584 -539 -269 0
-585 -540 -270 0
-586 -541 -268 0
-587 -542 -269 0
-588 -543 -270 0
-589 -544 -268 0
-590 -545 -269 0
-591 -546 -270 0
-592 -547 -268 0
-593 -548 -269 0
-594 -549 -270 0
-595 -550 -268 0
-596 -551 -269 0
-597 -552 -270 0
-598 -553 -268 0
-599 -554 -269 0
-600 -555 -270 0
-601 -556 -268 0
-602 -557 -269 0
-603 -558 -270 0
-604 -559 -268 0
-605 -560 -269 0
-606 -561 -270 0
-607 -562 -268 0
-608 -563 -269 0
-609 -564 -270 0
-610 -565 -268 0
-611 -566 -269 0
-612 -567 -270 0
-613 -568 -268 0
-614 -569 -269 0
-615 -570 -270 0
-616 -571 -268 0
-617 -572 -269 0
-618 -573 -270 0
-619 -574 -268 0
-620 -575 -269 0
-621 -576 -270 0
-622 -577 -268 0
-623 -578 -269 0
-624 -579 -270 0
-625 -580 -268 0
-626 -581 -269 0
-627 -582 -270 0
-628 -583 -268 0
-629 -584 -269 0
-630 -585 -270 0
-631 -586 -268 0
-632 -587 -269 0
-633 -588 -270 0
-634 -589 -268 0
-635 -590 -269 0
-636 -591 -270 0
-637 -592 -268 0
-638 -593 -269 0
-639 -594 -270 0
-640 -595 -268 0
-641 -596 -269 0
-642 -597 -270 0
-643 -598 -268 0
-644 -599 -269 0
-645 -600 -270 0
-646 -601 -268 0
-647 -602 -269 0
-648 -603 -270 0
-286 -49 -1 0
-287 -50 -2 0
-288 -51 -3 0
-286 -52 -4 0
-287 -53 -5 0
-288 -54 -6 0
-286 -55 -7 0
-287 -56 -8 0
-288 -57 -9 0
-286 -58 -10 0
-287 -59 -11 0
-288 -60 -12 0
-286 -61 -13 0
-287 -62 -14 0
-288 -63 -15 0
-286 -64 -16 0
-287 -65 -17 0
-288 -66 -18 0
-286 -67 -19 0
-287 -68 -20 0
-288 -69 -21 0
-286 -70 -22 0
-287 -71 -23 0
-288 -72 -24 0
-286 -73 -25 0
-287 -74 -26 0
-288 -75 -27 0
-286 -76 -28 0
-287 -77 -29 0
-288 -78 -30 0
-286 -79 -31 0
-287 -80 -32 0
-288 -81 -33 0
-286 -82 -34 0
-287 -83 -35 0
-288 -84 -36 0
-286 -85 -37 0
-287 -86 -38 0
-288 -87 -39 0
-286 -88 -40 0
-287 -89 -41 0
-288 -90 -42 0
-286 -91 -43 0
-287 -92 -44 0
-288 -93 -45 0
-286 -94 -46 0
-287 -95 -47 0
-288 -96 -48 0
-286 -97 -49 0
-287 -98 -50 0
-288 -99 -51 0
-286 -100 -52 0
-287 -101 -53 0
-288 -102 -54 0
-286 -103 -55 0
-287 -104 -56 0
-288 -105 -57 0
-286 -106 -58 0
-287 -107 -59 0
-288 -108 -60 0
-286 -109 -61 0
-287 -110 -62 0
-288 -111 -63 0
-286 -112 -64 0
-287 -113 -65 0
-288 -114 -66 0
-286 -115 -67 0
-287 -116 -68 0
-288 -117 -69 0
-286 -118 -70 0
-287 -119 -71 0
-288 -120 -72 0
-286 -121 -73 0
-287 -122 -74 0
-288 -123 -75 0
-286 -124 -76 0
-287 -125 -77 0
-288 -126 -78 0
-286 -127 -79 0
-287 -128 -80 0
-288 -129 -81 0
-286 -130 -82 0
-287 -131 -83 0
-288 -132 -84 0
-286 -133 -85 0
-287 -134 -86 0
-288 -135 -87 0
-286 -136 -88 0
-287 -137 -89 0
-288 -138 -90 0
-286 -139 -91 0
-287 -140 -92 0
-288 -141 -93 0
-286 -142 -94 0
-287 -143 -95 0
-288 -144 -96 0
-286 -145 -97 0
-287 -146 -98 0
-288 -147 -99 0
-286 -148 -100 0
-287 -149 -101 0
-288 -150 -102 0
-286 -151 -103 0
-287 -152 -104 0
-288 -153 -105 0
-286 -154 -106 0
-287 -155 -107 0
-288 -156 -108 0
-286 -157 -109 0
-287 -158 -110 0
-288 -159 -111 0
-286 -160 -112 0
-287 -161 -113 0
-288 -162 -114 0
-286 -163 -115 0
-287 -164 -116 0
-288 -165 -117 0
-286 -166 -118 0
-287 -167 -119 0
-288 -168 -120 0
-286 -169 -121 0
-287 -170 -122 0
-288 -171 -123 0
-286 -172 -124 0
-287 -173 -125 0
-288 -174 -126 0
-286 -175 -127 0
-287 -176 -128 0
-288 -177 -129 0
-286 -178 -130 0
-287 -179 -131 0
-288 -180 -132 0
-286 -181 -133 0
-287 -182 -134 0
-288 -183 -135 0
-286 -184 -136 0
-287 -185 -137 0
-288 -186 -138 0
-286 -187 -139 0
-287 -188 -140 0
-288 -189 -141 0
-286 -190 -142 0
-287 -191 -143 0
-288 -192 -144 0
-286 -193 -145 0
-287 -194 -146 0
-288 -195 -147 0
-286 -196 -148 0
-287 -197 -149 0
-288 -198 -150 0
-286 -199 -151 0
-287 -200 -152 0
-288 -201 -153 0
-286 -202 -154 0
-287 -203 -155 0
-288 -204 -156 0
-286 -205 -157 0
-287 -206 -158 0
-288 -207 -159 0
-286 -208 -160 0
-287 -209 -161 0
-288 -210 -162 0
-286 -211 -163 0
-287 -212 -164 0
-288 -213 -165 0
-286 -214 -166 0
-287 -215 -167 0
-288 -216 -168 0
-286 -217 -169 0
-287 -218 -170 0
-288 -219 -171 0
-286 -220 -172 0
-287 -221 -173 0
-288 -222 -174 0
-286 -223 -175 0
-287 -224 -176 0
-288 -225 -177 0
-286 -226 -178 0
-287 -227 -179 0
-288 -228 -180 0
-286 -229 -181 0
-287 -230 -182 0
-288 -231 -183 0
-286 -232 -184 0
-287 -233 -185 0
-288 -234 -186 0
-286 -235 -187 0
-287 -236 -188 0
-288 -237 -189 0
-286 -238 -190 0
-287 -239 -191 0
-288 -240 -192 0
-286 -241 -193 0
-287 -242 -194 0
-288 -243 -195 0
-286 -244 -196 0
-287 -245 -197 0
-288 -246 -198 0
-286 -247 -199 0
-287 -248 -200 0
-288 -249 -201 0
-286 -250 -202 0
-287 -251 -203 0
-288 -252 -204 0
-286 -253 -205 0
-287 -254 -206 0
-288 -255 -207 0
-286 -256 -208 0
-287 -257 -209 0
-288 -258 -210 0
-286 -259 -211 0
-287 -260 -212 0
-288 -261 -213 0
-286 -262 -214 0
-287 -263 -215 0
-288 -264 -216 0
-286 -265 -217 0
-287 -266 -218 0
-288 -267 -219 0
-286 -268 -220 0
-287 -269 -221 0
-288 -270 -222 0
-286 -271 -223 0
-287 -272 -224 0
-288 -273 -225 0
-286 -274 -226 0
-287 -275 -227 0
-288 -276 -228 0
-286 -277 -229 0
-287 -278 -230 0
-288 -279 -231 0
-286 -280 -232 0
-287 -281 -233 0
-288 -282 -234 0
-286 -283 -235 0
-287 -284 -236 0
-288 -285 -237 0
-286 -238 0
-287 -239 0
-288 -240 0
-289 -286 -241 0
-290 -287 -242 0
-291 -288 -243 0
-292 -286 -244 0
-293 -287 -245 0
-294 -288 -246 0
-295 -286 -247 0
-296 -287 -248 0
-297 -288 -249 0
-298 -286 -250 0
-299 -287 -251 0
-300 -288 -252 0
-301 -286 -253 0
-302 -287 -254 0
-303 -288 -255 0
-304 -286 -256 0
-305 -287 -257 0
-306 -288 -258 0
-307 -286 -259 0
-308 -287 -260 0
-309 -288 -261 0
-310 -286 -262 0
-311 -287 -263 0
-312 -288 -264 0
-313 -286 -265 0
-314 -287 -266 0
-315 -288 -267 0
-316 -286 -268 0
-317 -287 -269 0
-318 -288 -270 0
-319 -286 -271 0
-320 -287 -272 0
-321 -288 -273 0
-322 -286 -274 0
-323 -287 -275 0
-324 -288 -276 0
-325 -286 -277 0
-326 -287 -278 0
-327 -288 -279 0
-328 -286 -280 0
-329 -287 -281 0
-330 -288 -282 0
-331 -286 -283 0
-332 -287 -284 0
-333 -288 -285 0
-334 -286 0
-335 -287 0
-336 -288 0
-337 -289 -286 0
-338 -290 -287 0
-339 -291 -288 0
-340 -292 -286 0
-341 -293 -287 0
-342 -294 -288 0
-343 -295 -286 0
-344 -296 -287 0
-345 -297 -288 0
-346 -298 -286 0
-347 -299 -287 0
-348 -300 -288 0
-349 -301 -286 0
-350 -302 -287 0
-351 -303 -288 0
-352 -304 -286 0
-353 -305 -287 0
-354 -306 -288 0
-355 -307 -286 0
-356 -308 -287 0
-357 -309 -288 0
-358 -310 -286 0
-359 -311 -287 0
-360 -312 -288 0
-361 -313 -286 0
-362 -314 -287 0
-363 -315 -288 0
-364 -316 -286 0
-365 -317 -287 0
-366 -318 -288 0
-367 -319 -286 0
-368 -320 -287 0
-369 -321 -288 0
-370 -322 -286 0
-371 -323 -287 0
-372 -324 -288 0
-373 -325 -286 0
-374 -326 -287 0
-375 -327 -288 0
-376 -328 -286 0
-377 -329 -287 0
-378 -330 -288 0
-379 -331 -286 0
-380 -332 -287 0
-381 -333 -288 0
-382 -334 -286 0
-383 -335 -287 0
-384 -336 -288 0
-385 -337 -286 0
-386 -338 -287 0
-387 -339 -288 0
-388 -340 -286 0
-389 -341 -287 0
-390 -342 -288 0
-391 -343 -286 0
-392 -344 -287 0
-393 -345 -288 0
-394 -346 -286 0
-395 -347 -287 0
-396 -348 -288 0
-397 -349 -286 0
-398 -350 -287 0
-399 -351 -288 0
-400 -352 -286 0
-401 -353 -287 0
-402 -354 -288 0
-403 -355 -286 0
-404 -356 -287 0
-405 -357 -288 0
-406 -358 -286 0
-407 -359 -287 0
-408 -360 -288 0
-409 -361 -286 0
-410 -362 -287 0
-411 -363 -288 0
-412 -364 -286 0
-413 -365 -287 0
-414 -366 -288 0
-415 -367 -286 0
-416 -368 -287 0
-417 -369 -288 0
-418 -370 -286 0
-419 -371 -287 0
-420 -372 -288 0
-421 -373 -286 0
-422 -374 -287 0
-423 -375 -288 0
-424 -376 -286 0
-425 -377 -287 0
-426 -378 -288 0
-427 -379 -286 0
-428 -380 -287 0
-429 -381 -288 0
-430 -382 -286 0
-431 -383 -287 0
-432 -384 -288 0
-433 -385 -286 0
-434 -386 -287 0
-435 -387 -288 0
-436 -388 -286 0
-437 -389 -287 0
-438 -390 -288 0
-439 -391 -286 0
-440 -392 -287 0
-441 -393 -288 0
-442 -394 -286 0
-443 -395 -287 0
-444 -396 -288 0
-445 -397 -286 0
-446 -398 -287 0
-447 -399 -288 0
-448 -400 -286 0
-449 -401 -287 0
-450 -402 -288 0
-451 -403 -286 0
-452 -404 -287 0
-453 -405 -288 0
-454 -406 -286 0
-455 -407 -287 0
-456 -408 -288 0
-457 -409 -286 0
-458 -410 -287 0
-459 -411 -288 0
-460 -412 -286 0
-461 -413 -287 0
-462 -414 -288 0
-463 -415 -286 0
-464 -416 -287 0
-465 -417 -288 0
-466 -418 -286 0
-467 -419 -287 0
-468 -420 -288 0
-469 -421 -286 0
-470 -422 -287 0
-471 -423 -288 0
-472 -424 -286 0
-473 -425 -287 0
-474 -426 -288 0
-475 -427 -286 0
-476 -428 -287 0
-477 -429 -288 0
-478 -430 -286 0
-479 -431 -287 0
-480 -432 -288 0
-481 -433 -286 0
-482 -434 -287 0
-483 -435 -288 0
-484 -436 -286 0
-485 -437 -287 0
-486 -438 -288 0
-487 -439 -286 0
-488 -440 -287 0
-489 -441 -288 0
-490 -442 -286 0
-491 -443 -287 0
-492 -444 -288 0
-493 -445 -286 0
-494 -446 -287 0
-495 -447 -288 0
-496 -448 -286 0
-497 -449 -287 0
-498 -450 -288 0
-499 -451 -286 0
-500 -452 -287 0
-501 -453 -288 0
-502 -454 -286 0
-503 -455 -287 0
-504 -456 -288 0
-505 -457 -286 0
-506 -458 -287 0
-507 -459 -288 0
-508 -460 -286 0
-509 -461 -287 0
-510 -462 -288 0
-511 -463 -286 0
-512 -464 -287 0
-513 -465 -288 0
-514 -466 -286 0
-515 -467 -287 0
-516 -468 -288 0
-517 -469 -286 0
-518 -470 -287 0
-519 -471 -288 0
-520 -472 -286 0
-521 -473 -287 0
-522 -474 -288 0
-523 -475 -286 0
-524 -476 -287 0
-525 -477 -288 0
-526 -478 -286 0
-527 -479 -287 0
-528 -480 -288 0
-529 -481 -286 0
-530 -482 -287 0
-531 -483 -288 0
-532 -484 -286 0
-533 -485 -287 0
-534 -486 -288 0
-535 -487 -286 0
-536 -488 -287 0
-537 -489 -288 0
-538 -490 -286 0
-539 -491 -287 0
-540 -492 -288 0
-541 -493 -286 0
-542 -494 -287 0
-543 -495 -288 0
-544 -496 -286 0
-545 -497 -287 0
-546 -498 -288 0
-547 -499 -286 0
-548 -500 -287 0
-549 -501 -288 0
-550 -502 -286 0
-551 -503 -287 0
-552 -504 -288 0
-553 -505 -286 0
-554 -506 -287 0
-555 -507 -288 0
-556 -508 -286 0
-557 -509 -287 0
-558 -510 -288 0
-559 -511 -286 0
-560 -512 -287 0
-561 -513 -288 0
-562 -514 -286 0
-563 -515 -287 0
-564 -516 -288 0
-565 -517 -286 0
-566 -518 -287 0
-567 -519 -288 0
-568 -520 -286 0
-569 -521 -287 0
-570 -522 -288 0
-571 -523 -286 0
-572 -524 -287 0
-573 -525 -288 0
-574 -526 -286 0
-575 -527 -287 0
-576 -528 -288 0
-577 -529 -286 0
-578 -530 -287 0
-579 -531 -288 0
-580 -532 -286 0
-581 -533 -287 0
-582 -534 -288 0
-583 -535 -286 0
-584 -536 -287 0
-585 -537 -288 0
-586 -538 -286 0
-587 -539 -287 0
-588 -540 -288 0
-589 -541 -286 0
-590 -542 -287 0
-591 -543 -288 0
-592 -544 -286 0
-593 -545 -287 0
-594 -546 -288 0
-595 -547 -286 0
-596 -548 -287 0
-597 -549 -288 0
-598 -550 -286 0
-599 -551 -287 0
-600 -552 -288 0
-601 -553 -286 0
-602 -554 -287 0
-603 -555 -288 0
-604 -556 -286 0
-605 -557 -287 0
-606 -558 -288 0
-607 -559 -286 0
-608 -560 -287 0
-609 -561 -288 0
-610 -562 -286 0
-611 -563 -287 0
-612 -564 -288 0
-613 -565 -286 0
-614 -566 -287 0
-615 -567 -288 0
-616 -568 -286 0
-617 -569 -287 0
-618 -570 -288 0
-619 -571 -286 0
-620 -572 -287 0
-621 -573 -288 0
-622 -574 -286 0
-623 -575 -287 0
-624 -576 -288 0
-625 -577 -286 0
-626 -578 -287 0
-627 -579 -288 0
-628 -580 -286 0
-629 -581 -287 0
-630 -582 -288 0
-631 -583 -286 0
-632 -584 -287 0
-633 -585 -288 0
-634 -586 -286 0
-635 -587 -287 0
-636 -588 -288 0
-637 -589 -286 0
-638 -590 -287 0
-639 -591 -288 0
-640 -592 -286 0
-641 -593 -287 0
-642 -594 -288 0
-643 -595 -286 0
-644 -596 -287 0
-645 -597 -288 0
-646 -598 -286 0
-647 -599 -287 0
-648 -600 -288 0
-304 -52 -1 0
-305 -53 -2 0
-306 -54 -3 0
-304 -55 -4 0
-305 -56 -5 0
-306 -57 -6 0
-304 -58 -7 0
-305 -59 -8 0
-306 -60 -9 0
-304 -61 -10 0
-305 -62 -11 0
-306 -63 -12 0
-304 -64 -13 0
-305 -65 -14 0
-306 -66 -15 0
-304 -67 -16 0
-305 -68 -17 0
-306 -69 -18 0
-304 -70 -19 0
-305 -71 -20 0
-306 -72 -21 0
-304 -73 -22 0
-305 -74 -23 0
-306 -75 -24 0
-304 -76 -25 0
-305 -77 -26 0
-306 -78 -27 0
-304 -79 -28 0
-305 -80 -29 0
-306 -81 -30 0
-304 -82 -31 0
-305 -83 -32 0
-306 -84 -33 0
-304 -85 -34 0
-305 -86 -35 0
-306 -87 -36 0
-304 -88 -37 0
-305 -89 -38 0
-306 -90 -39 0
-304 -91 -40 0
-305 -92 -41 0
-306 -93 -42 0
-304 -94 -43 0
-305 -95 -44 0
-306 -96 -45 0
-304 -97 -46 0
-305 -98 -47 0
-306 -99 -48 0
-304 -100 -49 0
-305 -101 -50 0
-306 -102 -51 0
-304 -103 -52 0
-305 -104 -53 0
-306 -105 -54 0
-304 -106 -55 0
-305 -107 -56 0
-306 -108 -57 0
-304 -109 -58 0
-305 -110 -59 0
-306 -111 -60 0
-304 -112 -61 0
-305 -113 -62 0
-306 -114 -63 0
-304 -115 -64 0
-305 -116 -65 0
-306 -117 -66 0
-304 -118 -67 0
-305 -119 -68 0
-306 -120 -69 0
-304 -121 -70 0
-305 -122 -71 0
-306 -123 -72 0
-304 -124 -73 0
-305 -125 -74 0
-306 -126 -75 0
-304 -127 -76 0
-305 -128 -77 0
-306 -129 -78 0
-304 -130 -79 0
-305 -131 -80 0
-306 -132 -81 0
-304 -133 -82 0
-305 -134 -83 0
-306 -135 -84 0
-304 -136 -85 0
-305 -137 -86 0
-306 -138 -87 0
-304 -139 -88 0
-305 -140 -89 0
-306 -141 -90 0
-304 -142 -91 0
-305 -143 -92 0
-306 -144 -93 0
-304 -145 -94 0
-305 -146 -95 0
-306 -147 -96 0
-304 -148 -97 0
-305 -149 -98 0
-306 -150 -99 0
-304 -151 -100 0
-305 -152 -101 0
-306 -153 -102 0
-304 -154 -103 0
-305 -155 -104 0
-306 -156 -105 0
-304 -157 -106 0
-305 -158 -107 0
-306 -159 -108 0
-304 -160 -109 0
-305 -161 -110 0
-306 -162 -111 0
-304 -163 -112 0
-305 -164 -113 0
-306 -165 -114 0
-304 -166 -115 0
-305 -167 -116 0
-306 -168 -117 0
-304 -169 -118 0
-305 -170 -119 0
-306 -171 -120 0
-304 -172 -121 0
-305 -173 -122 0
-306 -174 -123 0
-304 -175 -124 0
-305 -176 -125 0
-306 -177 -126 0
-304 -178 -127 0
-305 -179 -128 0
-306 -180 -129 0
-304 -181 -130 0
-305 -182 -131 0
-306 -183 -132 0
-304 -184 -133 0
-305 -185 -134 0
-306 -186 -135 0
-304 -187 -136 0
-305 -188 -137 0
-306 -189 -138 0
-304 -190 -139 0
-305 -191 -140 0
-306 -192 -141 0
-304 -193 -142 0
-305 -194 -143 0
-306 -195 -144 0
-304 -196 -145 0
-305 -197 -146 0
-306 -198 -147 0
-304 -199 -148 0
-305 -200 -149 0
-306 -201 -150 0
-304 -202 -151 0
-305 -203 -152 0
-306 -204 -153 0
-304 -205 -154 0
-305 -206 -155 0
-306 -207 -156 0
-304 -208 -157 0
-305 -209 -158 0
-306 -210 -159 0
-304 -211 -160 0
-305 -212 -161 0
-306 -213 -162 0
-304 -214 -163 0
-305 -215 -164 0
-306 -216 -165 0
-304 -217 -166 0
-305 -218 -167 0
-306 -219 -168 0
-304 -220 -169 0
-305 -221 -170 0
-306 -222 -171 0
-304 -223 -172 0
-305 -224 -173 0
-306 -225 -174 0
-304 -226 -175 0
-305 -227 -176 0
-306 -228 -177 0
-304 -229 -178 0
-305 -230 -179 0
-306 -231 -180 0
-304 -232 -181 0
-305 -233 -182 0
-306 -234 -183 0
-304 -235 -184 0
-305 -236 -185 0
-306 -237 -186 0
-304 -238 -187 0
-305 -239 -188 0
-306 -240 -189 0
-304 -241 -190 0
-305 -242 -191 0
-306 -243 -192 0
-304 -244 -193 0
-305 -245 -194 0
-306 -246 -195 0
-304 -247 -196 0
-305 -248 -197 0
-306 -249 -198 0
-304 -250 -199 0
-305 -251 -200 0
-306 -252 -201 0
-304 -253 -202 0
-305 -254 -203 0
-306 -255 -204 0
-304 -256 -205 0
-305 -257 -206 0
-306 -258 -207 0
-304 -259 -208 0
-305 -260 -209 0
-306 -261 -210 0
-304 -262 -211 0
-305 -263 -212 0
-306 -264 -213 0
-304 -265 -214 0
-305 -266 -215 0
-306 -267 -216 0
-304 -268 -217 0
-305 -269 -218 0
-306 -270 -219 0
-304 -271 -220 0
-305 -272 -221 0
-306 -273 -222 0
-304 -274 -223 0
-305 -275 -224 0
-306 -276 -225 0
-304 -277 -226 0
-305 -278 -227 0
-306 -279 -228 0
-304 -280 -229 0
-305 -281 -230 0
-306 -282 -231 0
-304 -283 -232 0
-305 -284 -233 0
-306 -285 -234 0
-304 -286 -235 0
-305 -287 -236 0
-306 -288 -237 0
-304 -289 -238 0
-305 -290 -239 0
-306 -291 -240 0
-304 -292 -241 0
-305 -293 -242 0
-306 -294 -243 0
-304 -295 -244 0
-305 -296 -245 0
-306 -297 -246 0
-304 -298 -247 0
-305 -299 -248 0
-306 -300 -249 0
-304 -301 -250 0
-305 -302 -251 0
-306 -303 -252 0
-304 -253 0
-305 -254 0
-306 -255 0
-307 -304 -256 0
-308 -305 -257 0
-309 -306 -258 0
-310 -304 -259 0
-311 -305 -260 0
-312 -306 -261 0
-313 -304 -262 0
-314 -305 -263 0
-315 -306 -264 0
-316 -304 -265 0
-317 -305 -266 0
-318 -306 -267 0
-319 -304 -268 0
-320 -305 -269 0
-321 -306 -270 0
-322 -304 -271 0
-323 -305 -272 0
-324 -306 -273 0
-325 -304 -274 0
-326 -305 -275 0
-327 -306 -276 0
-328 -304 -277 0
-329 -305 -278 0
-330 -306 -279 0
-331 -304 -280 0
-332 -305 -281 0
-333 -306 -282 0
-334 -304 -283 0
-335 -305 -284 0
-336 -306 -285 0
-337 -304 -286 0
-338 -305 -287 0
-339 -306 -288 0
-340 -304 -289 0
-341 -305 -290 0
-342 -306 -291 0
-343 -304 -292 0
-344 -305 -293 0
-345 -306 -294 0
-346 -304 -295 0
-347 -305 -296 0
-348 -306 -297 0
-349 -304 -298 0
-350 -305 -299 0
-351 -306 -300 0
-352 -304 -301 0
-353 -305 -302 0
-354 -306 -303 0
-355 -304 0
-356 -305 0
-357 -306 0
-358 -307 -304 0
-359 -308 -305 0
-360 -309 -306 0
-361 -310 -304 0
-362 -311 -305 0
-363 -312 -306 0
-364 -313 -304 0
-365 -314 -305 0
-366 -315 -306 0
-367 -316 -304 0
-368 -317 -305 0
-369 -318 -306 0
-370 -319 -304 0
-371 -320 -305 0
-372 -321 -306 0
-373 -322 -304 0
-374 -323 -305 0
-375 -324 -306 0
-376 -325 -304 0
-377 -326 -305 0
-378 -327 -306 0
-379 -328 -304 0
-380 -329 -305 0
-381 -330 -306 0
-382 -331 -304 0
-383 -332 -305 0
-384 -333 -306 0
-385 -334 -304 0
-386 -335 -305 0
-387 -336 -306 0
-388 -337 -304 0
-389 -338 -305 0
-390 -339 -306 0
-391 -340 -304 0
-392 -341 -305 0
-393 -342 -306 0
-394 -343 -304 0
-395 -344 -305 0
-396 -345 -306 0
-397 -346 -304 0
-398 -347 -305 0
-399 -348 -306 0
-400 -349 -304 0
-401 -350 -305 0
-402 -351 -306 0
-403 -352 -304 0
-404 -353 -305 0
-405 -354 -306 0
-406 -355 -304 0
-407 -356 -305 0
-408 -357 -306 0
-409 -358 -304 0
-410 -359 -305 0
-411 -360 -306 0
-412 -361 -304 0
-413 -362 -305 0
-414 -363 -306 0
-415 -364 -304 0
-416 -365 -305 0
-417 -366 -306 0
-418 -367 -304 0
-419 -368 -305 0
-420 -369 -306 0
-421 -370 -304 0
-422 -371 -305 0
-423 -372 -306 0
-424 -373 -304 0
-425 -374 -305 0
-426 -375 -306 0
-427 -376 -304 0
-428 -377 -305 0
-429 -378 -306 0
-430 -379 -304 0
-431 -380 -305 0
-432 -381 -306 0
-433 -382 -304 0
-434 -383 -305 0
-435 -384 -306 0
-436 -385 -304 0
-437 -386 -305 0
-438 -387 -306 0
-439 -388 -304 0
-440 -389 -305 0
-441 -390 -306 0
-442 -391 -304 0
-443 -392 -305 0
-444 -393 -306 0
-445 -394 -304 0
-446 -395 -305 0
-447 -396 -306 0
-448 -397 -304 0
-449 -398 -305 0
-450 -399 -306 0
-451 -400 -304 0
-452 -401 -305 0
-453 -402 -306 0
-454 -403 -304 0
-455 -404 -305 0
-456 -405 -306 0
-457 -406 -304 0
-458 -407 -305 0
-459 -408 -306 0
-460 -409 -304 0
-461 -410 -305 0
-462 -411 -306 0
-463 -412 -304 0
-464 -413 -305 0
-465 -414 -306 0
-466 -415 -304 0
-467 -416 -305 0
-468 -417 -306 0
-469 -418 -304 0
-470 -419 -305 0
-471 -420 -306 0
-472 -421 -304 0
-473 -422 -305 0
-474 -423 -306 0
-475 -424 -304 0
-476 -425 -305 0
-477 -426 -306 0
-478 -427 -304 0
-479 -428 -305 0
-480 -429 -306 0
-481 -430 -304 0
-482 -431 -305 0
-483 -432 -306 0
-484 -433 -304 0
-485 -434 -305 0
-486 -435 -306 0
-487 -436 -304 0
-488 -437 -305 0
-489 -438 -306 0
-490 -439 -304 0
-491 -440 -305 0
-492 -441 -306 0
-493 -442 -304 0
-494 -443 -305 0
-495 -444 -306 0
-496 -445 -304 0
-497 -446 -305 0
-498 -447 -306 0
-499 -448 -304 0
-500 -449 -305 0
-501 -450 -306 0
-502 -451 -304 0
-503 -452 -305 0
-504 -453 -306 0
-505 -454 -304 0
-506 -455 -305 0
-507 -456 -306 0
-508 -457 -304 0
-509 -458 -305 0
-510 -459 -306 0
-511 -460 -304 0
-512 -461 -305 0
-513 -462 -306 0
-514 -463 -304 0
-515 -464 -305 0
-516 -465 -306 0
-517 -466 -304 0
-518 -467 -305 0
-519 -468 -306 0
-520 -469 -304 0
-521 -470 -305 0
-522 -471 -306 0
-523 -472 -304 0
-524 -473 -305 0
-525 -474 -306 0
-526 -475 -304 0
-527 -476 -305 0
-528 -477 -306 0
-529 -478 -304 0
-530 -479 -305 0
-531 -480 -306 0
-532 -481 -304 0
-533 -482 -305 0
-534 -483 -306 0
-535 -484 -304 0
-536 -485 -305 0
-537 -486 -306 0
-538 -487 -304 0
-539 -488 -305 0
-540 -489 -306 0
-541 -490 -304 0
-542 -491 -305 0
-543 -492 -306 0
-544 -493 -304 0
-545 -494 -305 0
-546 -495 -306 0
-547 -496 -304 0
-548 -497 -305 0
-549 -498 -306 0
-550 -499 -304 0
-551 -500 -305 0
-552 -501 -306 0
-553 -502 -304 0
-554 -503 -305 0
-555 -504 -306 0
-556 -505 -304 0
-557 -506 -305 0
-558 -507 -306 0
-559 -508 -304 0
-560 -509 -305 0
-561 -510 -306 0
-562 -511 -304 0
-563 -512 -305 0
-564 -513 -306 0
-565 -514 -304 0
-566 -515 -305 0
-567 -516 -306 0
-568 -517 -304 0
-569 -518 -305 0
-570 -519 -306 0
-571 -520 -304 0
-572 -521 -305 0
-573 -522 -306 0
-574 -523 -304 0
-575 -524 -305 0
-576 -525 -306 0
-577 -526 -304 0
-578 -527 -305 0
-579 -528 -306 0
-580 -529 -304 0
-581 -530 -305 0
-582 -531 -306 0
-583 -532 -304 0
-584 -533 -305 0
-585 -534 -306 0
-586 -535 -304 0
-587 -536 -305 0
-588 -537 -306 0
-589 -538 -304 0
-590 -539 -305 0
-591 -540 -306 0
-592 -541 -304 0
-593 -542 -305 0
-594 -543 -306 0
-595 -544 -304 0
-596 -545 -305 0
-597 -546 -306 0
-598 -547 -304 0
-599 -548 -305 0
-600 -549 -306 0
-601 -550 -304 0
-602 -551 -305 0
-603 -552 -306 0
-604 -553 -304 0
-605 -554 -305 0
-606 -555 -306 0
-607 -556 -304 0
-608 -557 -305 0
-609 -558 -306 0
-610 -559 -304 0
-611 -560 -305 0
-612 -561 -306 0
-613 -562 -304 0
-614 -563 -305 0
-615 -564 -306 0
-616 -565 -304 0
-617 -566 -305 0
-618 -567 -306 0
-619 -568 -304 0
-620 -569 -305 0
-621 -570 -306 0
-622 -571 -304 0
-623 -572 -305 0
-624 -573 -306 0
-625 -574 -304 0
-626 -575 -305 0
-627 -576 -306 0
-628 -577 -304 0
-629 -578 -305 0
-630 -579 -306 0
-631 -580 -304 0
-632 -581 -305 0
-633 -582 -306 0
-634 -583 -304 0
-635 -584 -305 0
-636 -585 -306 0
-637 -586 -304 0
-638 -587 -305 0
-639 -588 -306 0
-640 -589 -304 0
-641 -590 -305 0
-642 -591 -306 0
-643 -592 -304 0
-644 -593 -305 0
-645 -594 -306 0
-646 -595 -304 0
-647 -596 -305 0
-648 -597 -306 0
-322 -55 -1 0
-323 -56 -2 0
-324 -57 -3 0
-322 -58 -4 0
-323 -59 -5 0
-324 -60 -6 0
-322 -61 -7 0
-323 -62 -8 0
-324 -63 -9 0
-322 -64 -10 0
-323 -65 -11 0
-324 -66 -12 0
-322 -67 -13 0
-323 -68 -14 0
-324 -69 -15 0
-322 -70 -16 0
-323 -71 -17 0
-324 -72 -18 0
-322 -73 -19 0
-323 -74 -20 0
-324 -75 -21 0
-322 -76 -22 0
-323 -77 -23 0
-324 -78 -24 0
-322 -79 -25 0
-323 -80 -26 0
-324 -81 -27 0
-322 -82 -28 0
-323 -83 -29 0
-324 -84 -30 0
-322 -85 -31 0
-323 -86 -32 0
-324 -87 -33 0
-322 -88 -34 0
-323 -89 -35 0
-324 -90 -36 0
-322 -91 -37 0
-323 -92 -38 0
-324 -93 -39 0
-322 -94 -40 0
-323 -95 -41 0
-324 -96 -42 0
-322 -97 -43 0
-323 -98 -44 0
-324 -99 -45 0
-322 -100 -46 0
-323 -101 -47 0
-324 -102 -48 0
-322 -103 -49 0
-323 -104 -50 0
-324 -105 -51 0
-322 -106 -52 0
-323 -107 -53 0
-324 -108 -54 0
-322 -109 -55 0
-323 -110 -56 0
-324 -111 -57 0
-322 -112 -58 0
-323 -113 -59 0
-324 -114 -60 0
-322 -115 -61 0
-323 -116 -62 0
-324 -117 -63 0
-322 -118 -64 0
-323 -119 -65 0
-324 -120 -66 0
-322 -121 -67 0
-323 -122 -68 0
-324 -123 -69 0
-322 -124 -70 0
-323 -125 -71 0
-324 -126 -72 0
-322 -127 -73 0
-323 -128 -74 0
-324 -129 -75 0
-322 -130 -76 0
-323 -131 -77 0
-324 -132 -78 0
-322 -133 -79 0
-323 -134 -80 0
-324 -135 -81 0
-322 -136 -82 0
-323 -137 -83 0
-324 -138 -84 0
-322 -139 -85 0
-323 -140 -86 0
-324 -141 -87 0
-322 -142 -88 0
-323 -143 -89 0
-324 -144 -90 0
-322 -145 -91 0
-323 -146 -92 0
-324 -147 -93 0
-322 -148 -94 0
-323 -149 -95 0
-324 -150 -96 0
-322 -151 -97 0
-323 -152 -98 0
-324 -153 -99 0
-322 -154 -100 0
-323 -155 -101 0
-324 -156 -102 0
-322 -157 -103 0
-323 -158 -104 0
-324 -159 -105 0
-322 -160 -106 0
-323 -161 -107 0
-324 -162 -108 0
-322 -163 -109 0
-323 -164 -110 0
-324 -165 -111 0
-322 -166 -112 0
-323 -167 -113 0
-324 -168 -114 0
-322 -169 -115 0
-323 -170 -116 0
-324 -171 -117 0
-322 -172 -118 0
-323 -173 -119 0
-324 -174 -120 0
-322 -175 -121 0
-323 -176 -122 0
-324 -177 -123 0
-322 -178 -124 0
-323 -179 -125 0
-324 -180 -126 0
-322 -181 -127 0
-323 -182 -128 0
-324 -183 -129 0
-322 -184 -130 0
-323 -185 -131 0
-324 -186 -132 0
-322 -187 -133 0
-323 -188 -134 0
-324 -189 -135 0
-322 -190 -136 0
-323 -191 -137 0
-324 -192 -138 0
-322 -193 -139 0
-323 -194 -140 0
-324 -195 -141 0
-322 -196 -142 0
-323 -197 -143 0
-324 -198 -144 0
-322 -199 -145 0
-323 -200 -146 0
-324 -201 -147 0
-322 -202 -148 0
-323 -203 -149 0
-324 -204 -150 0
-322 -205 -151 0
-323 -206 -152 0
-324 -207 -153 0
-322 -208 -154 0
-323 -209 -155 0
-324 -210 -156 0
-322 -211 -157 0
-323 -212 -158 0
-324 -213 -159 0
-322 -214 -160 0
-323 -215 -161 0
-324 -216 -162 0
-322 -217 -163 0
-323 -218 -164 0
-324 -219 -165 0
-322 -220 -166 0
-323 -221 -167 0
-324 -222 -168 0
-322 -223 -169 0
-323 -224 -170 0
-324 -225 -171 0
-322 -226 -172 0
-323 -227 -173 0
-324 -228 -174 0
-322 -229 -175 0
-323 -230 -176 0
-324 -231 -177 0
-322 -232 -178 0
-323 -233 -179 0
-324 -234 -180 0
-322 -235 -181 0
-323 -236 -182 0
-324 -237 -183 0
-322 -238 -184 0
-323 -239 -185 0
-324 -240 -186 0
-322 -241 -187 0
-323 -242 -188 0
-324 -243 -189 0
-322 -244 -190 0
-323 -245 -191 0
-324 -246 -192 0
-322 -247 -193 0
-323 -248 -194 0
-324 -249 -195 0
-322 -250 -196 0
-323 -251 -197 0
-324 -252 -198 0
-322 -253 -199 0
-323 -254 -200 0
-324 -255 -201 0
-322 -256 -202 0
-323 -257 -203 0
-324 -258 -204 0
-322 -259 -205 0
-323 -260 -206 0
-324 -261 -207 0
-322 -262 -208 0
-323 -263 -209 0
-324 -264 -210 0
-322 -265 -211 0
-323 -266 -212 0
-324 -267 -213 0
-322 -268 -214 0
-323 -269 -215 0
-324 -270 -216 0
-322 -271 -217 0
-323 -272 -218 0
-324 -273 -219 0
-322 -274 -220 0
-323 -275 -221 0
-324 -276 -222 0
-322 -277 -223 0
-323 -278 -224 0
-324 -279 -225 0
-322 -280 -226 0
-323 -281 -227 0
-324 -282 -228 0
-322 -283 -229 0
-323 -284 -230 0
-324 -285 -231 0
-322 -286 -232 0
-323 -287 -233 0
-324 -288 -234 0
-322 -289 -235 0
-323 -290 -236 0
-324 -291 -237 0
-322 -292 -238 0
-323 -293 -239 0
-324 -294 -240 0
-322 -295 -241 0
-323 -296 -242 0
-324 -297 -243 0
-322 -298 -244 0
-323 -299 -245 0
-324 -300 -246 0
-322 -301 -247 0
-323 -302 -248 0
-324 -303 -249 0
-322 -304 -250 0
-323 -305 -251 0
-324 -306 -252 0
-322 -307 -253 0
-323 -308 -254 0
-324 -309 -255 0
-322 -310 -256 0
-323 -311 -257 0
-324 -312 -258 0
-322 -313 -259 0
-323 -314 -260 0
-324 -315 -261 0
-322 -316 -262 0
-323 -317 -263 0
-324 -318 -264 0
-322 -319 -265 0
-323 -320 -266 0
-324 -321 -267 0
-322 -268 0
-323 -269 0
-324 -270 0
-325 -322 -271 0
-326 -323 -272 0
-327 -324 -273 0
-328 -322 -274 0
-329 -323 -275 0
-330 -324 -276 0
-331 -322 -277 0
-332 -323 -278 0
-333 -324 -279 0
-334 -322 -280 0
-335 -323 -281 0
-336 -324 -282 0
-337 -322 -283 0
-338 -323 -284 0
-339 -324 -285 0
-340 -322 -286 0
-341 -323 -287 0
-342 -324 -288 0
-343 -322 -289 0
-344 -323 -290 0
-345 -324 -291 0
-346 -322 -292 0
-347 -323 -293 0
-348 -324 -294 0
-349 -322 -295 0
-350 -323 -296 0
-351 -324 -297 0
-352 -322 -298 0
-353 -323 -299 0
-354 -324 -300 0
-355 -322 -301 0
-356 -323 -302 0
-357 -324 -303 0
-358 -322 -304 0
-359 -323 -305 0
-360 -324 -306 0
-361 -322 -307 0
-362 -323 -308 0
-363 -324 -309 0
-364 -322 -310 0
-365 -323 -311 0
-366 -324 -312 0
-367 -322 -313 0
-368 -323 -314 0
-369 -324 -315 0
-370 -322 -316 0
-371 -323 -317 0
-372 -324 -318 0
-373 -322 -319 0
-374 -323 -320 0
-375 -324 -321 0
-376 -322 0
-377 -323 0
-378 -324 0
-379 -325 -322 0
-380 -326 -323 0
-381 -327 -324 0
-382 -328 -322 0
-383 -329 -323 0
-384 -330 -324 0
-385 -331 -322 0
-386 -332 -323 0
-387 -333 -324 0
-388 -334 -322 0
-389 -335 -323 0
-390 -336 -324 0
-391 -337 -322 0
-392 -338 -323 0
-393 -339 -324 0
-394 -340 -322 0
-395 -341 -323 0
-396 -342 -324 0
-397 -343 -322 0
-398 -344 -323 0
-399 -345 -324 0
-400 -346 -322 0
-401 -347 -323 0
-402 -348 -324 0
-403 -349 -322 0
-404 -350 -323 0
-405 -351 -324 0
-406 -352 -322 0
-407 -353 -323 0
-408 -354 -324 0
-409 -355 -322 0
-410 -356 -323 0
-411 -357 -324 0
-412 -358 -322 0
-413 -359 -323 0
-414 -360 -324 0
-415 -361 -322 0
-416 -362 -323 0
-417 -363 -324 0
-418 -364 -322 0
-419 -365 -323 0
-420 -366 -324 0
-421 -367 -322 0
-422 -368 -323 0
-423 -369 -324 0
-424 -370 -322 0
-425 -371 -323 0
-426 -372 -324 0
-427 -373 -322 0
-428 -374 -323 0
-429 -375 -324 0
-430 -376 -322 0
-431 -377 -323 0
-432 -378 -324 0
-433 -379 -322 0
-434 -380 -323 0
-435 -381 -324 0
-436 -382 -322 0
-437 -383 -323 0
-438 -384 -324 0
-439 -385 -322 0
-440 -386 -323 0
-441 -387 -324 0
-442 -388 -322 0
-443 -389 -323 0
-444 -390 -324 0
-445 -391 -322 0
-446 -392 -323 0
-447 -393 -324 0
-448 -394 -322 0
-449 -395 -323 0
-450 -396 -324 0
-451 -397 -322 0
-452 -398 -323 0
-453 -399 -324 0
-454 -400 -322 0
-455 -401 -323 0
-456 -402 -324 0
-457 -403 -322 0
-458 -404 -323 0
-459 -405 -324 0
-460 -406 -322 0
-461 -407 -323 0
-462 -408 -324 0
-463 -409 -322 0
-464 -410 -323 0
-465 -411 -324 0
-466 -412 -322 0
-467 -413 -323 0
-468 -414 -324 0
-469 -415 -322 0
-470 -416 -323 0
-471 -417 -324 0
-472 -418 -322 0
-473 -419 -323 0
-474 -420 -324 0
-475 -421 -322 0
-476 -422 -323 0
-477 -423 -324 0
-478 -424 -322 0
-479 -425 -323 0
-480 -426 -324 0
-481 -427 -322 0
-482 -428 -323 0
-483 -429 -324 0
-484 -430 -322 0
-485 -431 -323 0
-486 -432 -324 0
-487 -433 -322 0
-488 -434 -323 0
-489 -435 -324 0
-490 -436 -322 0
-491 -437 -323 0
-492 -438 -324 0
-493 -439 -322 0
-494 -440 -323 0
-495 -441 -324 0
-496 -442 -322 0
-497 -443 -323 0
-498 -444 -324 0
-499 -445 -322 0
-500 -446 -323 0
-501 -447 -324 0
-502 -448 -322 0
-503 -449 -323 0
-504 -450 -324 0
-505 -451 -322 0
-506 -452 -323 0
-507 -453 -324 0
-508 -454 -322 0
-509 -455 -323 0
-510 -456 -324 0
-511 -457 -322 0
-512 -458 -323 0
-513 -459 -324 0
-514 -460 -322 0
-515 -461 -323 0
-516 -462 -324 0
-517 -463 -322 0
-518 -464 -323 0
-519 -465 -324 0
-520 -466 -322 0
-521 -467 -323 0
-522 -468 -324 0
-523 -469 -322 0
-524 -470 -323 0
-525 -471 -324 0
-526 -472 -322 0
-527 -473 -323 0
-528 -474 -324 0
-529 -475 -322 0
-530 -476 -323 0
-531 -477 -324 0
-532 -478 -322 0
-533 -479 -323 0
-534 -480 -324 0
-535 -481 -322 0
-536 -482 -323 0
-537 -483 -324 0
-538 -484 -322 0
-539 -485 -323 0
-540 -486 -324 0
-541 -487 -322 0
-542 -488 -323 0
-543 -489 -324 0
-544 -490 -322 0
-545 -491 -323 0
-546 -492 -324 0
-547 -493 -322 0
-548 -494 -323 0
-549 -495 -324 0
-550 -496 -322 0
-551 -497 -323 0
-552 -498 -324 0
-553 -499 -322 0
-554 -500 -323 0
-555 -501 -324 0
-556 -502 -322 0
-557 -503 -323 0
-558 -504 -324 0
-559 -505 -322 0
-560 -506 -323 0
-561 -507 -324 0
-562 -508 -322 0
-563 -509 -323 0
-564 -510 -324 0
-565 -511 -322 0
-566 -512 -323 0
-567 -513 -324 0
-568 -514 -322 0
-569 -515 -323 0
-570 -516 -324 0
-571 -517 -322 0
-572 -518 -323 0
-573 -519 -324 0
-574 -520 -322 0
-575 -521 -323 0
-576 -522 -324 0
-577 -523 -322 0
-578 -524 -323 0
-579 -525 -324 0
-580 -526 -322 0
-581 -527 -323 0
-582 -528 -324 0
-583 -529 -322 0
-584 -530 -323 0
-585 -531 -324 0
-586 -532 -322 0
-587 -533 -323 0
-588 -534 -324 0
-589 -535 -322 0
-590 -536 -323 0
-591 -537 -324 0
-592 -538 -322 0
-593 -539 -323 0
-594 -540 -324 0
-595 -541 -322 0
-596 -542 -323 0
-597 -543 -324 0
-598 -544 -322 0
-599 -545 -323 0
-600 -546 -324 0
-601 -547 -322 0
-602 -548 -323 0
-603 -549 -324 0
-604 -550 -322 0
-605 -551 -323 0
-606 -552 -324 0
-607 -553 -322 0
-608 -554 -323 0
-609 -555 -324 0
-610 -556 -322 0
-611 -557 -323 0
-612 -558 -324 0
-613 -559 -322 0
-614 -560 -323 0
-615 -561 -324 0
-616 -562 -322 0
-617 -563 -323 0
-618 -564 -324 0
-619 -565 -322 0
-620 -566 -323 0
-621 -567 -324 0
-622 -568 -322 0
-623 -569 -323 0
-624 -570 -324 0
-625 -571 -322 0
-626 -572 -323 0
-627 -573 -324 0
-628 -574 -322 0
-629 -575 -323 0
-630 -576 -324 0
-631 -577 -322 0
-632 -578 -323 0
-633 -579 -324 0
-634 -580 -322 0
-635 -581 -323 0
-636 -582 -324 0
-637 -583 -322 0
-638 -584 -323 0
-639 -585 -324 0
-640 -586 -322 0
-641 -587 -323 0
-642 -588 -324 0
-643 -589 -322 0
-644 -590 -323 0
-645 -591 -324 0
-646 -592 -322 0
-647 -593 -323 0
-648 -594 -324 0
-340 -58 -1 0
-341 -59 -2 0
-342 -60 -3 0
-340 -61 -4 0
-341 -62 -5 0
-342 -63 -6 0
-340 -64 -7 0
-341 -65 -8 0
-342 -66 -9 0
-340 -67 -10 0
-341 -68 -11 0
-342 -69 -12 0
-340 -70 -13 0
-341 -71 -14 0
-342 -72 -15 0
-340 -73 -16 0
-341 -74 -17 0
-342 -75 -18 0
-340 -76 -19 0
-341 -77 -20 0
-342 -78 -21 0
-340 -79 -22 0
-341 -80 -23 0
-342 -81 -24 0
-340 -82 -25 0
-341 -83 -26 0
-342 -84 -27 0
-340 -85 -28 0
-341 -86 -29 0
-342 -87 -30 0
-340 -88 -31 0
-341 -89 -32 0
-342 -90 -33 0
-340 -91 -34 0
-341 -92 -35 0
-342 -93 -36 0
-340 -94 -37 0
-341 -95 -38 0
-342 -96 -39 0
-340 -97 -40 0
-341 -98 -41 0
-342 -99 -42 0
-340 -100 -43 0
-341 -101 -44 0
-342 -102 -45 0
-340 -103 -46 0
-341 -104 -47 0
-342 -105 -48 0
-340 -106 -49 0
-341 -107 -50 0
-342 -108 -51 0
-340 -109 -52 0
-341 -110 -53 0
-342 -111 -54 0
-340 -112 -55 0
-341 -113 -56 0
-342 -114 -57 0
-340 -115 -58 0
-341 -116 -59 0
-342 -117 -60 0
-340 -118 -61 0
-341 -119 -62 0
-342 -120 -63 0
-340 -121 -64 0
-341 -122 -65 0
-342 -123 -66 0
-340 -124 -67 0
-341 -125 -68 0
-342 -126 -69 0
-340 -127 -70 0
-341 -128 -71 0
-342 -129 -72 0
-340 -130 -73 0
-341 -131 -74 0
-342 -132 -75 0
-340 -133 -76 0
-341 -134 -77 0
-342 -135 -78 0
-340 -136 -79 0
-341 -137 -80 0
-342 -138 -81 0
-340 -139 -82 0
-341 -140 -83 0
-342 -141 -84 0
-340 -142 -85 0
-341 -143 -86 0
-342 -144 -87 0
-340 -145 -88 0
-341 -146 -89 0
-342 -147 -90 0
-340 -148 -91 0
-341 -149 -92 0
-342 -150 -93 0
-340 -151 -94 0
-341 -152 -95 0
-342 -153 -96 0
-340 -154 -97 0
-341 -155 -98 0
-342 -156 -99 0
-340 -157 -100 0
-341 -158 -101 0
-342 -159 -102 0
-340 -160 -103 0
-341 -161 -104 0
-342 -162 -105 0
-340 -163 -106 0
-341 -164 -107 0
-342 -165 -108 0
-340 -166 -109 0
-341 -167 -110 0
-342 -168 -111 0
-340 -169 -112 0
-341 -170 -113 0
-342 -171 -114 0
-340 -172 -115 0
-341 -173 -116 0
-342 -174 -117 0
-340 -175 -118 0
-341 -176 -119 0
-342 -177 -120 0
-340 -178 -121 0
-341 -179 -122 0
-342 -180 -123 0
-340 -181 -124 0
-341 -182 -125 0
-342 -183 -126 0
-340 -184 -127 0
-341 -185 -128 0
-342 -186 -129 0
-340 -187 -130 0
-341 -188 -131 0
-342 -189 -132 0
-340 -190 -133 0
-341 -191 -134 0
-342 -192 -135 0
-340 -193 -136 0
-341 -194 -137 0
-342 -195 -138 0
-340 -196 -139 0
-341 -197 -140 0
-342 -198 -141 0
-340 -199 -142 0
-341 -200 -143 0
-342 -201 -144 0
-340 -202 -145 0
-341 -203 -146 0
-342 -204 -147 0
-340 -205 -148 0
-341 -206 -149 0
-342 -207 -150 0
-340 -208 -151 0
-341 -209 -152 0
-342 -210 -153 0
-340 -211 -154 0
-341 -212 -155 0
-342 -213 -156 0
-340 -214 -157 0
-341 -215 -158 0
-342 -216 -159 0
-340 -217 -160 0
-341 -218 -161 0
-342 -219 -162 0
-340 -220 -163 0
-341 -221 -164 0
-342 -222 -165 0
-340 -223 -166 0
-341 -224 -167 0
-342 -225 -168 0
-340 -226 -169 0
-341 -227 -170 0
-342 -228 -171 0
-340 -229 -172 0
-341 -230 -173 0
-342 -231 -174 0
-340 -232 -175 0
-341 -233 -176 0
-342 -234 -177 0
-340 -235 -178 0
-341 -236 -179 0
-342 -237 -180 0
-340 -238 -181 0
-341 -239 -182 0
-342 -240 -183 0
-340 -241 -184 0
-341 -242 -185 0
-342 -243 -186 0
-340 -244 -187 0
-341 -245 -188 0
-342 -246 -189 0
-340 -247 -190 0
-341 -248 -191 0
-342 -249 -192 0
-340 -250 -193 0
-341 -251 -194 0
-342 -252 -195 0
-340 -253 -196 0
-341 -254 -197 0
-342 -255 -198 0
-340 -256 -199 0
-341 -257 -200 0
-342 -258 -201 0
-340 -259 -202 0
-341 -260 -203 0
-342 -261 -204 0
-340 -262 -205 0
-341 -263 -206 0
-342 -264 -207 0
-340 -265 -208 0
-341 -266 -209 0
-342 -267 -210 0
-340 -268 -211 0
-341 -269 -212 0
-342 -270 -213 0
-340 -271 -214 0
-341 -272 -215 0
-342 -273 -216 0
-340 -274 -217 0
-341 -275 -218 0
-342 -276 -219 0
-340 -277 -220 0
-341 -278 -221 0
-342 -279 -222 0
-340 -280 -223 0
-341 -281 -224 0
-342 -282 -225 0
-340 -283 -226 0
-341 -284 -227 0
-342 -285 -228 0
-340 -286 -229 0
-341 -287 -230 0
-342 -288 -231 0
-340 -289 -232 0
-341 -290 -233 0
-342 -291 -234 0
-340 -292 -235 0
-341 -293 -236 0
-342 -294 -237 0
-340 -295 -238 0
-341 -296 -239 0
-342 -297 -240 0
-340 -298 -241 0
-341 -299 -242 0
-342 -300 -243 0
-340 -301 -244 0
-341 -302 -245 0
-342 -303 -246 0
-340 -304 -247 0
-341 -305 -248 0
-342 -306 -249 0
-340 -307 -250 0
-341 -308 -251 0
-342 -309 -252 0
-340 -310 -253 0
-341 -311 -254 0
-342 -312 -255 0
-340 -313 -256 0
-341 -314 -257 0
-342 -315 -258 0
-340 -316 -259 0
-341 -317 -260 0
-342 -318 -261 0
-340 -319 -262 0
-341 -320 -263 0
-342 -321 -264 0
-340 -322 -265 0
-341 -323 -266 0
-342 -324 -267 0
-340 -325 -268 0
-341 -326 -269 0
-342 -327 -270 0
-340 -328 -271 0
-341 -329 -272 0
-342 -330 -273 0
-340 -331 -274 0
-341 -332 -275 0
-342 -333 -276 0
-340 -334 -277 0
-341 -335 -278 0
-342 -336 -279 0
-340 -337 -280 0
-341 -338 -281 0
-342 -339 -282 0
-340 -283 0
-341 -284 0
-342 -285 0
-343 -340 -286 0
-344 -341 -287 0
-345 -342 -288 0
-346 -340 -289 0
-347 -341 -290 0
-348 -342 -291 0
-349 -340 -292 0
-350 -341 -293 0
-351 -342 -294 0
-352 -340 -295 0
-353 -341 -296 0
-354 -342 -297 0
-355 -340 -298 0
-356 -341 -299 0
-357 -342 -300 0
-358 -340 -301 0
-359 -341 -302 0
-360 -342 -303 0
-361 -340 -304 0
-362 -341 -305 0
-363 -342 -306 0
-364 -340 -307 0
-365 -341 -308 0
-366 -342 -309 0
-367 -340 -310 0
-368 -341 -311 0
-369 -342 -312 0
-370 -340 -313 0
-371 -341 -314 0
-372 -342 -315 0
-373 -340 -316 0
-374 -341 -317 0
-375 -342 -318 0
-376 -340 -319 0
-377 -341 -320 0
-378 -342 -321 0
-379 -340 -322 0
-380 -341 -323 0
-381 -342 -324 0
-382 -340 -325 0
-383 -341 -326 0
-384 -342 -327 0
-385 -340 -328 0
-386 -341 -329 0
-387 -342 -330 0
-388 -340 -331 0
-389 -341 -332 0
-390 -342 -333 0
-391 -340 -334 0
-392 -341 -335 0
-393 -342 -336 0
-394 -340 -337 0
-395 -341 -338 0
-396 -342 -339 0
-397 -340 0
-398 -341 0
-399 -342 0
-400 -343 -340 0
-401 -344 -341 0
-402 -345 -342 0
-403 -346 -340 0
-404 -347 -341 0
-405 -348 -342 0
-406 -349 -340 0
-407 -350 -341 0
-408 -351 -342 0
-409 -352 -340 0
-410 -353 -341 0
-411 -354 -342 0
-412 -355 -340 0
-413 -356 -341 0
-414 -357 -342 0
-415 -358 -340 0
-416 -359 -341 0
-417 -360 -342 0
-418 -361 -340 0
-419 -362 -341 0
-420 -363 -342 0
-421 -364 -340 0
-422 -365 -341 0
-423 -366 -342 0
-424 -367 -340 0
-425 -368 -341 0
-426 -369 -342 0
-427 -370 -340 0
-428 -371 -341 0
-429 -372 -342 0
-430 -373 -340 0
-431 -374 -341 0
-432 -375 -342 0
-433 -376 -340 0
-434 -377 -341 0
-435 -378 -342 0
-436 -379 -340 0
-437 -380 -341 0
-438 -381 -342 0
-439 -382 -340 0
-440 -383 -341 0
-441 -384 -342 0
-442 -385 -340 0
-443 -386 -341 0
-444 -387 -342 0
-445 -388 -340 0
-446 -389 -341 0
-447 -390 -342 0
-448 -391 -340 0
-449 -392 -341 0
-450 -393 -342 0
-451 -394 -340 0
-452 -395 -341 0
-453 -396 -342 0
-454 -397 -340 0
-455 -398 -341 0
-456 -399 -342 0
-457 -400 -340 0
-458 -401 -341 0
-459 -402 -342 0
-460 -403 -340 0
-461 -404 -341 0
-462 -405 -342 0
-463 -406 -340 0
-464 -407 -341 0
-465 -408 -342 0
-466 -409 -340 0
-467 -410 -341 0
-468 -411 -342 0
-469 -412 -340 0
-470 -413 -341 0
-471 -414 -342 0
-472 -415 -340 0
-473 -416 -341 0
-474 -417 -342 0
-475 -418 -340 0
-476 -419 -341 0
-477 -420 -342 0
-478 -421 -340 0
-479 -422 -341 0
-480 -423 -342 0
-481 -424 -340 0
-482 -425 -341 0
-483 -426 -342 0
-484 -427 -340 0
-485 -428 -341 0
-486 -429 -342 0
-487 -430 -340 0
-488 -431 -341 0
-489 -432 -342 0
-490 -433 -340 0
-491 -434 -341 0
-492 -435 -342 0
-493 -436 -340 0
-494 -437 -341 0
-495 -438 -342 0
-496 -439 -340 0
-497 -440 -341 0
-498 -441 -342 0
-499 -442 -340 0
-500 -443 -341 0
-501 -444 -342 0
-502 -445 -340 0
-503 -446 -341 0
-504 -447 -342 0
-505 -448 -340 0
-506 -449 -341 0
-507 -450 -342 0
-508 -451 -340 0
-509 -452 -341 0
-510 -453 -342 0
-511 -454 -340 0
-512 -455 -341 0
-513 -456 -342 0
-514 -457 -340 0
-515 -458 -341 0
-516 -459 -342 0
-517 -460 -340 0
-518 -461 -341 0
-519 -462 -342 0
-520 -463 -340 0
-521 -464 -341 0
-522 -465 -342 0
-523 -466 -340 0
-524 -467 -341 0
-525 -468 -342 0
-526 -469 -340 0
-527 -470 -341 0
-528 -471 -342 0
-529 -472 -340 0
-530 -473 -341 0
-531 -474 -342 0
-532 -475 -340 0
-533 -476 -341 0
-534 -477 -342 0
-535 -478 -340 0
-536 -479 -341 0
-537 -480 -342 0
-538 -481 -340 0
-539 -482 -341 0
-540 -483 -342 0
-541 -484 -340 0
-542 -485 -341 0
-543 -486 -342 0
-544 -487 -340 0
-545 -488 -341 0
-546 -489 -342 0
-547 -490 -340 0
-548 -491 -341 0
-549 -492 -342 0
-550 -493 -340 0
-551 -494 -341 0
-552 -495 -342 0
-553 -496 -340 0
-554 -497 -341 0
-555 -498 -342 0
-556 -499 -340 0
-557 -500 -341 0
-558 -501 -342 0
-559 -502 -340 0
-560 -503 -341 0
-561 -504 -342 0
-562 -505 -340 0
-563 -506 -341 0
-564 -507 -342 0
-565 -508 -340 0
-566 -509 -341 0
-567 -510 -342 0
-568 -511 -340 0
-569 -512 -341 0
-570 -513 -342 0
-571 -514 -340 0
-572 -515 -341 0
-573 -516 -342 0
-574 -517 -340 0
-575 -518 -341 0
-576 -519 -342 0
-577 -520 -340 0
-578 -521 -341 0
-579 -522 -342 0
-580 -523 -340 0
-581 -524 -341 0
-582 -525 -342 0
-583 -526 -340 0
-584 -527 -341 0
-585 -528 -342 0
-586 -529 -340 0
-587 -530 -341 0
-588 -531 -342 0
-589 -532 -340 0
-590 -533 -341 0
-591 -534 -342 0
-592 -535 -340 0
-593 -536 -341 0
-594 -537 -342 0
-595 -538 -340 0
-596 -539 -341 0
-597 -540 -342 0
-598 -541 -340 0
-599 -542 -341 0
-600 -543 -342 0
-601 -544 -340 0
-602 -545 -341 0
-603 -546 -342 0
-604 -547 -340 0
-605 -548 -341 0
-606 -549 -342 0
-607 -550 -340 0
-608 -551 -341 0
-609 -552 -342 0
-610 -553 -340 0
-611 -554 -341 0
-612 -555 -342 0
-613 -556 -340 0
-614 -557 -341 0
-615 -558 -342 0
-616 -559 -340 0
-617 -560 -341 0
-618 -561 -342 0
-619 -562 -340 0
-620 -563 -341 0
-621 -564 -342 0
-622 -565 -340 0
-623 -566 -341 0
-624 -567 -342 0
-625 -568 -340 0
-626 -569 -341 0
-627 -570 -342 0
-628 -571 -340 0
-629 -572 -341 0
-630 -573 -342 0
-631 -574 -340 0
-632 -575 -341 0
-633 -576 -342 0
-634 -577 -340 0
-635 -578 -341 0
-636 -579 -342 0
-637 -580 -340 0
-638 -581 -341 0
-639 -582 -342 0
-640 -583 -340 0
-641 -584 -341 0
-642 -585 -342 0
-643 -586 -340 0
-644 -587 -341 0
-645 -588 -342 0
-646 -589 -340 0
-647 -590 -341 0
-648 -591 -342 0
-358 -61 -1 0
-359 -62 -2 0
-360 -63 -3 0
-358 -64 -4 0
-359 -65 -5 0
-360 -66 -6 0
-358 -67 -7 0
-359 -68 -8 0
-360 -69 -9 0
-358 -70 -10 0
-359 -71 -11 0
-360 -72 -12 0
-358 -73 -13 0
-359 -74 -14 0
-360 -75 -15 0
-358 -76 -16 0
-359 -77 -17 0
-360 -78 -18 0
-358 -79 -19 0
-359 -80 -20 0
-360 -81 -21 0
-358 -82 -22 0
-359 -83 -23 0
-360 -84 -24 0
-358 -85 -25 0
-359 -86 -26 0
-360 -87 -27 0
-358 -88 -28 0
-359 -89 -29 0
-360 -90 -30 0
-358 -91 -31 0
-359 -92 -32 0
-360 -93 -33 0
-358 -94 -34 0
-359 -95 -35 0
-360 -96 -36 0
-358 -97 -37 0
-359 -98 -38 0
-360 -99 -39 0
-358 -100 -40 0
-359 -101 -41 0
-360 -102 -42 0
-358 -103 -43 0
-359 -104 -44 0
-360 -105 -45 0
-358 -106 -46 0
-359 -107 -47 0
-360 -108 -48 0
-358 -109 -49 0
-359 -110 -50 0
-360 -111 -51 0
-358 -112 -52 0
-359 -113 -53 0
-360 -114 -54 0
-358 -115 -55 0
-359 -116 -56 0
-360 -117 -57 0
-358 -118 -58 0
-359 -119 -59 0
-360 -120 -60 0
-358 -121 -61 0
-359 -122 -62 0
-360 -123 -63 0
-358 -124 -64 0
-359 -125 -65 0
-360 -126 -66 0
-358 -127 -67 0
-359 -128 -68 0
-360 -129 -69 0
-358 -130 -70 0
-359 -131 -71 0
-360 -132 -72 0
-358 -133 -73 0
-359 -134 -74 0
-360 -135 -75 0
-358 -136 -76 0
-359 -137 -77 0
-360 -138 -78 0
-358 -139 -79 0
-359 -140 -80 0
-360 -141 -81 0
-358 -142 -82 0
-359 -143 -83 0
-360 -144 -84 0
-358 -145 -85 0
-359 -146 -86 0
-360 -147 -87 0
-358 -148 -88 0
-359 -149 -89 0
-360 -150 -90 0
-358 -151 -91 0
-359 -152 -92 0
-360 -153 -93 0
-358 -154 -94 0
-359 -155 -95 0
-360 -156 -96 0
-358 -157 -97 0
-359 -158 -98 0
-360 -159 -99 0
-358 -160 -100 0
-359 -161 -101 0
-360 -162 -102 0
-358 -163 -103 0
-359 -164 -104 0
-360 -165 -105 0
-358 -166 -106 0
-359 -167 -107 0
-360 -168 -108 0
-358 -169 -109 0
-359 -170 -110 0
-360 -171 -111 0
-358 -172 -112 0
-359 -173 -113 0
-360 -174 -114 0
-358 -175 -115 0
-359 -176 -116 0
-360 -177 -117 0
-358 -178 -118 0
-359 -179 -119 0
-360 -180 -120 0
-358 -181 -121 0
-359 -182 -122 0
-360 -183 -123 0
-358 -184 -124 0
-359 -185 -125 0
-360 -186 -126 0
-358 -187 -127 0
-359 -188 -128 0
-360 -189 -129 0
-358 -190 -130 0
-359 -191 -131 0
-360 -192 -132 0
-358 -193 -133 0
-359 -194 -134 0
-360 -195 -135 0
-358 -196 -136 0
-359 -197 -137 0
-360 -198 -138 0
-358 -199 -139 0
-359 -200 -140 0
-360 -201 -141 0
-358 -202 -142 0
-359 -203 -143 0
-360 -204 -144 0
-358 -205 -145 0
-359 -206 -146 0
-360 -207 -147 0
-358 -208 -148 0
-359 -209 -149 0
-360 -210 -150 0
-358 -211 -151 0
-359 -212 -152 0
-360 -213 -153 0
-358 -214 -154 0
-359 -215 -155 0
-360 -216 -156 0
-358 -217 -157 0
-359 -218 -158 0
-360 -219 -159 0
-358 -220 -160 0
-359 -221 -161 0
-360 -222 -162 0
-358 -223 -163 0
-359 -224 -164 0
-360 -225 -165 0
-358 -226 -166 0
-359 -227 -167 0
-360 -228 -168 0
-358 -229 -169 0
-359 -230 -170 0
-360 -231 -171 0
-358 -232 -172 0
-359 -233 -173 0
-360 -234 -174 0
-358 -235 -175 0
-359 -236 -176 0
-360 -237 -177 0
-358 -238 -178 0
-359 -239 -179 0
-360 -240 -180 0
-358 -241 -181 0
-359 -242 -182 0
-360 -243 -183 0
-358 -244 -184 0
-359 -245 -185 0
-360 -246 -186 0
-358 -247 -187 0
-359 -248 -188 0
-360 -249 -189 0
-358 -250 -190 0
-359 -251 -191 0
-360 -252 -192 0
-358 -253 -193 0
-359 -254 -194 0
-360 -255 -195 0
-358 -256 -196 0
-359 -257 -197 0
-360 -258 -198 0
-358 -259 -199 0
-359 -260 -200 0
-360 -261 -201 0
-358 -262 -202 0
-359 -263 -203 0
-360 -264 -204 0
-358 -265 -205 0
-359 -266 -206 0
-360 -267 -207 0
-358 -268 -208 0
-359 -269 -209 0
-360 -270 -210 0
-358 -271 -211 0
-359 -272 -212 0
-360 -273 -213 0
-358 -274 -214 0
-359 -275 -215 0
-360 -276 -216 0
-358 -277 -217 0
-359 -278 -218 0
-360 -279 -219 0
-358 -280 -220 0
-359 -281 -221 0
-360 -282 -222 0
-358 -283 -223 0
-359 -284 -224 0
-360 -285 -225 0
-358 -286 -226 0
-359 -287 -227 0
-360 -288 -228 0
-358 -289 -229 0
-359 -290 -230 0
-360 -291 -231 0
-358 -292 -232 0
-359 -293 -233 0
-360 -294 -234 0
-358 -295 -235 0
-359 -296 -236 0
-360 -297 -237 0
-358 -298 -238 0
-359 -299 -239 0
-360 -300 -240 0
-358 -301 -241 0
-359 -302 -242 0
-360 -303 -243 0
-358 -304 -244 0
-359 -305 -245 0
-360 -306 -246 0
-358 -307 -247 0
-359 -308 -248 0
-360 -309 -249 0
-358 -310 -250 0
-359 -311 -251 0
-360 -312 -252 0
-358 -313 -253 0
-359 -314 -254 0
-360 -315 -255 0
-358 -316 -256 0
-359 -317 -257 0
-360 -318 -258 0
-358 -319 -259 0
-359 -320 -260 0
-360 -321 -261 0
-358 -322 -262 0
-359 -323 -263 0
-360 -324 -264 0
-358 -325 -265 0
-359 -326 -266 0
-360 -327 -267 0
-358 -328 -268 0
-359 -329 -269 0
-360 -330 -270 0
-358 -331 -271 0
-359 -332 -272 0
-360 -333 -273 0
-358 -334 -274 0
-359 -335 -275 0
-360 -336 -276 0
-358 -337 -277 0
-359 -338 -278 0
-360 -339 -279 0
-358 -340 -280 0
-359 -341 -281 0
-360 -342 -282 0
-358 -343 -283 0
-359 -344 -284 0
-360 -345 -285 0
-358 -346 -286 0
-359 -347 -287 0
-360 -348 -288 0
-358 -349 -289 0
-359 -350 -290 0
-360 -351 -291 0
-358 -352 -292 0
-359 -353 -293 0
-360 -354 -294 0
-358 -355 -295 0
-359 -356 -296 0
-360 -357 -297 0
-358 -298 0
-359 -299 0
-360 -300 0
-361 -358 -301 0
-362 -359 -302 0
-363 -360 -303 0
-364 -358 -304 0
-365 -359 -305 0
-366 -360 -306 0
-367 -358 -307 0
-368 -359 -308 0
-369 -360 -309 0
-370 -358 -310 0
-371 -359 -311 0
-372 -360 -312 0
-373 -358 -313 0
-374 -359 -314 0
-375 -360 -315 0
-376 -358 -316 0
-377 -359 -317 0
-378 -360 -318 0
-379 -358 -319 0
-380 -359 -320 0
-381 -360 -321 0
-382 -358 -322 0
-383 -359 -323 0
-384 -360 -324 0
-385 -358 -325 0
-386 -359 -326 0
-387 -360 -327 0
-388 -358 -328 0
-389 -359 -329 0
-390 -360 -330 0
-391 -358 -331 0
-392 -359 -332 0
-393 -360 -333 0
-394 -358 -334 0
-395 -359 -335 0
-396 -360 -336 0
-397 -358 -337 0
-398 -359 -338 0
-399 -360 -339 0
-400 -358 -340 0
-401 -359 -341 0
-402 -360 -342 0
-403 -358 -343 0
-404 -359 -344 0
-405 -360 -345 0
-406 -358 -346 0
-407 -359 -347 0
-408 -360 -348 0
-409 -358 -349 0
-410 -359 -350 0
-411 -360 -351 0
-412 -358 -352 0
-413 -359 -353 0
-414 -360 -354 0
-415 -358 -355 0
-416 -359 -356 0
-417 -360 -357 0
-418 -358 0
-419 -359 0
-420 -360 0
-421 -361 -358 0
-422 -362 -359 0
-423 -363 -360 0
-424 -364 -358 0
-425 -365 -359 0
-426 -366 -360 0
-427 -367 -358 0
-428 -368 -359 0
-429 -369 -360 0
-430 -370 -358 0
-431 -371 -359 0
-432 -372 -360 0
-433 -373 -358 0
-434 -374 -359 0
-435 -375 -360 0
-436 -376 -358 0
-437 -377 -359 0
-438 -378 -360 0
-439 -379 -358 0
-440 -380 -359 0
-441 -381 -360 0
-442 -382 -358 0
-443 -383 -359 0
-444 -384 -360 0
-445 -385 -358 0
-446 -386 -359 0
-447 -387 -360 0
-448 -388 -358 0
-449 -389 -359 0
-450 -390 -360 0
-451 -391 -358 0
-452 -392 -359 0
-453 -393 -360 0
-454 -394 -358 0
-455 -395 -359 0
-456 -396 -360 0
-457 -397 -358 0
-458 -398 -359 0
-459 -399 -360 0
-460 -400 -358 0
-461 -401 -359 0
-462 -402 -360 0
-463 -403 -358 0
-464 -404 -359 0
-465 -405 -360 0
-466 -406 -358 0
-467 -407 -359 0
-468 -408 -360 0
-469 -409 -358 0
-470 -410 -359 0
-471 -411 -360 0
-472 -412 -358 0
-473 -413 -359 0
-474 -414 -360 0
-475 -415 -358 0
-476 -416 -359 0
-477 -417 -360 0
-478 -418 -358 0
-479 -419 -359 0
-480 -420 -360 0
-481 -421 -358 0
-482 -422 -359 0
-483 -423 -360 0
-484 -424 -358 0
-485 -425 -359 0
-486 -426 -360 0
-487 -427 -358 0
-488 -428 -359 0
-489 -429 -360 0
-490 -430 -358 0
-491 -431 -359 0
-492 -432 -360 0
-493 -433 -358 0
-494 -434 -359 0
-495 -435 -360 0
-496 -436 -358 0
-497 -437 -359 0
-498 -438 -360 0
-499 -439 -358 0
-500 -440 -359 0
-501 -441 -360 0
-502 -442 -358 0
-503 -443 -359 0
-504 -444 -360 0
-505 -445 -358 0
-506 -446 -359 0
-507 -447 -360 0
-508 -448 -358 0
-509 -449 -359 0
-510 -450 -360 0
-511 -451 -358 0
-512 -452 -359 0
-513 -453 -360 0
-514 -454 -358 0
-515 -455 -359 0
-516 -456 -360 0
-517 -457 -358 0
-518 -458 -359 0
-519 -459 -360 0
-520 -460 -358 0
-521 -461 -359 0
-522 -462 -360 0
-523 -463 -358 0
-524 -464 -359 0
-525 -465 -360 0
-526 -466 -358 0
-527 -467 -359 0
-528 -468 -360 0
-529 -469 -358 0
-530 -470 -359 0
-531 -471 -360 0
-532 -472 -358 0
-533 -473 -359 0
-534 -474 -360 0
-535 -475 -358 0
-536 -476 -359 0
-537 -477 -360 0
-538 -478 -358 0
-539 -479 -359 0
-540 -480 -360 0
-541 -481 -358 0
-542 -482 -359 0
-543 -483 -360 0
-544 -484 -358 0
-545 -485 -359 0
-546 -486 -360 0
-547 -487 -358 0
-548 -488 -359 0
-549 -489 -360 0
-550 -490 -358 0
-551 -491 -359 0
-552 -492 -360 0
-553 -493 -358 0
-554 -494 -359 0
-555 -495 -360 0
-556 -496 -358 0
-557 -497 -359 0
-558 -498 -360 0
-559 -499 -358 0
-560 -500 -359 0
-561 -501 -360 0
-562 -502 -358 0
-563 -503 -359 0
-564 -504 -360 0
-565 -505 -358 0
-566 -506 -359 0
-567 -507 -360 0
-568 -508 -358 0
-569 -509 -359 0
-570 -510 -360 0
-571 -511 -358 0
-572 -512 -359 0
-573 -513 -360 0
-574 -514 -358 0
-575 -515 -359 0
-576 -516 -360 0
-577 -517 -358 0
-578 -518 -359 0
-579 -519 -360 0
-580 -520 -358 0
-581 -521 -359 0
-582 -522 -360 0
-583 -523 -358 0
-584 -524 -359 0
-585 -525 -360 0
-586 -526 -358 0
-587 -527 -359 0
-588 -528 -360 0
-589 -529 -358 0
-590 -530 -359 0
-591 -531 -360 0
-592 -532 -358 0
-593 -533 -359 0
-594 -534 -360 0
-595 -535 -358 0
-596 -536 -359 0
-597 -537 -360 0
-598 -538 -358 0
-599 -539 -359 0
-600 -540 -360 0
-601 -541 -358 0
-602 -542 -359 0
-603 -543 -360 0
-604 -544 -358 0
-605 -545 -359 0
-606 -546 -360 0
-607 -547 -358 0
-608 -548 -359 0
-609 -549 -360 0
-610 -550 -358 0
-611 -551 -359 0
-612 -552 -360 0
-613 -553 -358 0
-614 -554 -359 0
-615 -555 -360 0
-616 -556 -358 0
-617 -557 -359 0
-618 -558 -360 0
-619 -559 -358 0
-620 -560 -359 0
-621 -561 -360 0
-622 -562 -358 0
-623 -563 -359 0
-624 -564 -360 0
-625 -565 -358 0
-626 -566 -359 0
-627 -567 -360 0
-628 -568 -358 0
-629 -569 -359 0
-630 -570 -360 0
-631 -571 -358 0
-632 -572 -359 0
-633 -573 -360 0
-634 -574 -358 0
-635 -575 -359 0
-636 -576 -360 0
-637 -577 -358 0
-638 -578 -359 0
-639 -579 -360 0
-640 -580 -358 0
-641 -581 -359 0
-642 -582 -360 0
-643 -583 -358 0
-644 -584 -359 0
-645 -585 -360 0
-646 -586 -358 0
-647 -587 -359 0
-648 -588 -360 0
-376 -64 -1 0
-377 -65 -2 0
-378 -66 -3 0
-376 -67 -4 0
-377 -68 -5 0
-378 -69 -6 0
-376 -70 -7 0
-377 -71 -8 0
-378 -72 -9 0
-376 -73 -10 0
-377 -74 -11 0
-378 -75 -12 0
-376 -76 -13 0
-377 -77 -14 0
-378 -78 -15 0
-376 -79 -16 0
-377 -80 -17 0
-378 -81 -18 0
-376 -82 -19 0
-377 -83 -20 0
-378 -84 -21 0
-376 -85 -22 0
-377 -86 -23 0
-378 -87 -24 0
-376 -88 -25 0
-377 -89 -26 0
-378 -90 -27 0
-376 -91 -28 0
-377 -92 -29 0
-378 -93 -30 0
-376 -94 -31 0
-377 -95 -32 0
-378 -96 -33 0
-376 -97 -34 0
-377 -98 -35 0
-378 -99 -36 0
-376 -100 -37 0
-377 -101 -38 0
-378 -102 -39 0
-376 -103 -40 0
-377 -104 -41 0
-378 -105 -42 0
-376 -106 -43 0
-377 -107 -44 0
-378 -108 -45 0
-376 -109 -46 0
-377 -110 -47 0
-378 -111 -48 0
-376 -112 -49 0
-377 -113 -50 0
-378 -114 -51 0
-376 -115 -52 0
-377 -116 -53 0
-378 -117 -54 0
-376 -118 -55 0
-377 -119 -56 0
-378 -120 -57 0
-376 -121 -58 0
-377 -122 -59 0
-378 -123 -60 0
-376 -124 -61 0
-377 -125 -62 0
-378 -126 -63 0
-376 -127 -64 0
-377 -128 -65 0
-378 -129 -66 0
-376 -130 -67 0
-377 -131 -68 0
-378 -132 -69 0
-376 -133 -70 0
-377 -134 -71 0
-378 -135 -72 0
-376 -136 -73 0
-377 -137 -74 0
-378 -138 -75 0
-376 -139 -76 0
-377 -140 -77 0
-378 -141 -78 0
-376 -142 -79 0
-377 -143 -80 0
-378 -144 -81 0
-376 -145 -82 0
-377 -146 -83 0
-378 -147 -84 0
-376 -148 -85 0
-377 -149 -86 0
-378 -150 -87 0
-376 -151 -88 0
-377 -152 -89 0
-378 -153 -90 0
-376 -154 -91 0
-377 -155 -92 0
-378 -156 -93 0
-376 -157 -94 0
-377 -158 -95 0
-378 -159 -96 0
-376 -160 -97 0
-377 -161 -98 0
-378 -162 -99 0
-376 -163 -100 0
-377 -164 -101 0
-378 -165 -102 0
-376 -166 -103 0
-377 -167 -104 0
-378 -168 -105 0
-376 -169 -106 0
-377 -170 -107 0
-378 -171 -108 0
-376 -172 -109 0
-377 -173 -110 0
-378 -174 -111 0
-376 -175 -112 0
-377 -176 -113 0
-378 -177 -114 0
-376 -178 -115 0
-377 -179 -116 0
-378 -180 -117 0
-376 -181 -118 0
-377 -182 -119 0
-378 -183 -120 0
-376 -184 -121 0
-377 -185 -122 0
-378 -186 -123 0
-376 -187 -124 0
-377 -188 -125 0
-378 -189 -126 0
-376 -190 -127 0
-377 -191 -128 0
-378 -192 -129 0
-376 -193 -130 0
-377 -194 -131 0
-378 -195 -132 0
-376 -196 -133 0
-377 -197 -134 0
-378 -198 -135 0
-376 -199 -136 0
-377 -200 -137 0
-378 -201 -138 0
-376 -202 -139 0
-377 -203 -140 0
-378 -204 -141 0
-376 -205 -142 0
-377 -206 -143 0
-378 -207 -144 0
-376 -208 -145 0
-377 -209 -146 0
-378 -210 -147 0
-376 -211 -148 0
-377 -212 -149 0
-378 -213 -150 0
-376 -214 -151 0
-377 -215 -152 0
-378 -216 -153 0
-376 -217 -154 0
-377 -218 -155 0
-378 -219 -156 0
-376 -220 -157 0
-377 -221 -158 0
-378 -222 -159 0
-376 -223 -160 0
-377 -224 -161 0
-378 -225 -162 0
-376 -226 -163 0
-377 -227 -164 0
-378 -228 -165 0
-376 -229 -166 0
-377 -230 -167 0
-378 -231 -168 0
-376 -232 -169 0
-377 -233 -170 0
-378 -234 -171 0
-376 -235 -172 0
-377 -236 -173 0
-378 -237 -174 0
-376 -238 -175 0
-377 -239 -176 0
-378 -240 -177 0
-376 -241 -178 0
-377 -242 -179 0
-378 -243 -180 0
-376 -244 -181 0
-377 -245 -182 0
-378 -246 -183 0
-376 -247 -184 0
-377 -248 -185 0
-378 -249 -186 0
-376 -250 -187 0
-377 -251 -188 0
-378 -252 -189 0
-376 -253 -190 0
-377 -254 -191 0
-378 -255 -192 0
-376 -256 -193 0
-377 -257 -194 0
-378 -258 -195 0
-376 -259 -196 0
-377 -260 -197 0
-378 -261 -198 0
-376 -262 -199 0
-377 -263 -200 0
-378 -264 -201 0
-376 -265 -202 0
-377 -266 -203 0
-378 -267 -204 0
-376 -268 -205 0
-377 -269 -206 0
-378 -270 -207 0
-376 -271 -208 0
-377 -272 -209 0
-378 -273 -210 0
-376 -274 -211 0
-377 -275 -212 0
-378 -276 -213 0
-376 -277 -214 0
-377 -278 -215 0
-378 -279 -216 0
-376 -280 -217 0
-377 -281 -218 0
-378 -282 -219 0
-376 -283 -220 0
-377 -284 -221 0
-378 -285 -222 0
-376 -286 -223 0
-377 -287 -224 0
-378 -288 -225 0
-376 -289 -226 0
-377 -290 -227 0
-378 -291 -228 0
-376 -292 -229 0
-377 -293 -230 0
-378 -294 -231 0
-376 -295 -232 0
-377 -296 -233 0
-378 -297 -234 0
-376 -298 -235 0
-377 -299 -236 0
-378 -300 -237 0
-376 -301 -238 0
-377 -302 -239 0
-378 -303 -240 0
-376 -304 -241 0
-377 -305 -242 0
-378 -306 -243 0
-376 -307 -244 0
-377 -308 -245 0
-378 -309 -246 0
-376 -310 -247 0
-377 -311 -248 0
-378 -312 -249 0
-376 -313 -250 0
-377 -314 -251 0
-378 -315 -252 0
-376 -316 -253 0
-377 -317 -254 0
-378 -318 -255 0
-376 -319 -256 0
-377 -320 -257 0
-378 -321 -258 0
-376 -322 -259 0
-377 -323 -260 0
-378 -324 -261 0
-376 -325 -262 0
-377 -326 -263 0
-378 -327 -264 0
-376 -328 -265 0
-377 -329 -266 0
-378 -330 -267 0
-376 -331 -268 0
-377 -332 -269 0
-378 -333 -270 0
-376 -334 -271 0
-377 -335 -272 0
-378 -336 -273 0
-376 -337 -274 0
-377 -338 -275 0
-378 -339 -276 0
-376 -340 -277 0
-377 -341 -278 0
-378 -342 -279 0
-376 -343 -280 0
-377 -344 -281 0
-378 -345 -282 0
-376 -346 -283 0
-377 -347 -284 0
-378 -348 -285 0
-376 -349 -286 0
-377 -350 -287 0
-378 -351 -288 0
-376 -352 -289 0
-377 -353 -290 0
-378 -354 -291 0
-376 -355 -292 0
-377 -356 -293 0
-378 -357 -294 0
-376 -358 -295 0
-377 -359 -296 0
-378 -360 -297 0
-376 -361 -298 0
-377 -362 -299 0
-378 -363 -300 0
-376 -364 -301 0
-377 -365 -302 0
-378 -366 -303 0
-376 -367 -304 0
-377 -368 -305 0
-378 -369 -306 0
-376 -370 -307 0
-377 -371 -308 0
-378 -372 -309 0
-376 -373 -310 0
-377 -374 -311 0
-378 -375 -312 0
-376 -313 0
-377 -314 0
-378 -315 0
-379 -376 -316 0
-380 -377 -317 0
-381 -378 -318 0
-382 -376 -319 0
-383 -377 -320 0
-384 -378 -321 0
-385 -376 -322 0
-386 -377 -323 0
-387 -378 -324 0
-388 -376 -325 0
-389 -377 -326 0
-390 -378 -327 0
-391 -376 -328 0
-392 -377 -329 0
-393 -378 -330 0
-394 -376 -331 0
-395 -377 -332 0
-396 -378 -333 0
-397 -376 -334 0
-398 -377 -335 0
-399 -378 -336 0
-400 -376 -337 0
-401 -377 -338 0
-402 -378 -339 0
-403 -376 -340 0
-404 -377 -341 0
-405 -378 -342 0
-406 -376 -343 0
-407 -377 -344 0
-408 -378 -345 0
-409 -376 -346 0
-410 -377 -347 0
-411 -378 -348 0
-412 -376 -349 0
-413 -377 -350 0
-414 -378 -351 0
-415 -376 -352 0
-416 -377 -353 0
-417 -378 -354 0
-418 -376 -355 0
-419 -377 -356 0
-420 -378 -357 0
-421 -376 -358 0
-422 -377 -359 0
-423 -378 -360 0
-424 -376 -361 0
-425 -377 -362 0
-426 -378 -363 0
-427 -376 -364 0
-428 -377 -365 0
-429 -378 -366 0
-430 -376 -367 0
-431 -377 -368 0
-432 -378 -369 0
-433 -376 -370 0
-434 -377 -371 0
-435 -378 -372 0
-436 -376 -373 0
-437 -377 -374 0
-438 -378 -375 0
-439 -376 0
-440 -377 0
-441 -378 0
-442 -379 -376 0
-443 -380 -377 0
-444 -381 -378 0
-445 -382 -376 0
-446 -383 -377 0
-447 -384 -378 0
-448 -385 -376 0
-449 -386 -377 0
-450 -387 -378 0
-451 -388 -376 0
-452 -389 -377 0
-453 -390 -378 0
-454 -391 -376 0
-455 -392 -377 0
-456 -393 -378 0
-457 -394 -376 0
-458 -395 -377 0
-459 -396 -378 0
-460 -397 -376 0
-461 -398 -377 0
-462 -399 -378 0
-463 -400 -376 0
-464 -401 -377 0
-465 -402 -378 0
-466 -403 -376 0
-467 -404 -377 0
-468 -405 -378 0
-469 -406 -376 0
-470 -407 -377 0
-471 -408 -378 0
-472 -409 -376 0
-473 -410 -377 0
-474 -411 -378 0
-475 -412 -376 0
-476 -413 -377 0
-477 -414 -378 0
-478 -415 -376 0
-479 -416 -377 0
-480 -417 -378 0
-481 -418 -376 0
-482 -419 -377 0
-483 -420 -378 0
-484 -421 -376 0
-485 -422 -377 0
-486 -423 -378 0
-487 -424 -376 0
-488 -425 -377 0
-489 -426 -378 0
-490 -427 -376 0
-491 -428 -377 0
-492 -429 -378 0
-493 -430 -376 0
-494 -431 -377 0
-495 -432 -378 0
-496 -433 -376 0
-497 -434 -377 0
-498 -435 -378 0
-499 -436 -376 0
-500 -437 -377 0
-501 -438 -378 0
-502 -439 -376 0
-503 -440 -377 0
-504 -441 -378 0
-505 -442 -376 0
-506 -443 -377 0
-507 -444 -378 0
-508 -445 -376 0
-509 -446 -377 0
-510 -447 -378 0
-511 -448 -376 0
-512 -449 -377 0
-513 -450 -378 0
-514 -451 -376 0
-515 -452 -377 0
-516 -453 -378 0
-517 -454 -376 0
-518 -455 -377 0
-519 -456 -378 0
-520 -457 -376 0
-521 -458 -377 0
-522 -459 -378 0
-523 -460 -376 0
-524 -461 -377 0
-525 -462 -378 0
-526 -463 -376 0
-527 -464 -377 0
-528 -465 -378 0
-529 -466 -376 0
-530 -467 -377 0
-531 -468 -378 0
-532 -469 -376 0
-533 -470 -377 0
-534 -471 -378 0
-535 -472 -376 0
-536 -473 -377 0
-537 -474 -378 0
-538 -475 -376 0
-539 -476 -377 0
-540 -477 -378 0
-541 -478 -376 0
-542 -479 -377 0
-543 -480 -378 0
-544 -481 -376 0
-545 -482 -377 0
-546 -483 -378 0
-547 -484 -376 0
-548 -485 -377 0
-549 -486 -378 0
-550 -487 -376 0
-551 -488 -377 0
-552 -489 -378 0
-553 -490 -376 0
-554 -491 -377 0
-555 -492 -378 0
-556 -493 -376 0
-557 -494 -377 0
-558 -495 -378 0
-559 -496 -376 0
-560 -497 -377 0
-561 -498 -378 0
-562 -499 -376 0
-563 -500 -377 0
-564 -501 -378 0
-565 -502 -376 0
-566 -503 -377 0
-567 -504 -378 0
-568 -505 -376 0
-569 -506 -377 0
-570 -507 -378 0
-571 -508 -376 0
-572 -509 -377 0
-573 -510 -378 0
-574 -511 -376 0
-575 -512 -377 0
-576 -513 -378 0
-577 -514 -376 0
-578 -515 -377 0
-579 -516 -378 0
-580 -517 -376 0
-581 -518 -377 0
-582 -519 -378 0
-583 -520 -376 0
-584 -521 -377 0
-585 -522 -378 0
-586 -523 -376 0
-587 -524 -377 0
-588 -525 -378 0
-589 -526 -376 0
-590 -527 -377 0
-591 -528 -378 0
-592 -529 -376 0
-593 -530 -377 0
-594 -531 -378 0
-595 -532 -376 0
-596 -533 -377 0
-597 -534 -378 0
-598 -535 -376 0
-599 -536 -377 0
-600 -537 -378 0
-601 -538 -376 0
-602 -539 -377 0
-603 -540 -378 0
-604 -541 -376 0
-605 -542 -377 0
-606 -543 -378 0
-607 -544 -376 0
-608 -545 -377 0
-609 -546 -378 0
-610 -547 -376 0
-611 -548 -377 0
-612 -549 -378 0
-613 -550 -376 0
-614 -551 -377 0
-615 -552 -378 0
-616 -553 -376 0
-617 -554 -377 0
-618 -555 -378 0
-619 -556 -376 0
-620 -557 -377 0
-621 -558 -378 0
-622 -559 -376 0
-623 -560 -377 0
-624 -561 -378 0
-625 -562 -376 0
-626 -563 -377 0
-627 -564 -378 0
-628 -565 -376 0
-629 -566 -377 0
-630 -567 -378 0
-631 -568 -376 0
-632 -569 -377 0
-633 -570 -378 0
-634 -571 -376 0
-635 -572 -377 0
-636 -573 -378 0
-637 -574 -376 0
-638 -575 -377 0
-639 -576 -378 0
-640 -577 -376 0
-641 -578 -377 0
-642 -579 -378 0
-643 -580 -376 0
-644 -581 -377 0
-645 -582 -378 0
-646 -583 -376 0
-647 -584 -377 0
-648 -585 -378 0
-394 -67 -1 0
-395 -68 -2 0
-396 -69 -3 0
-394 -70 -4 0
-395 -71 -5 0
-396 -72 -6 0
-394 -73 -7 0
-395 -74 -8 0
-396 -75 -9 0
-394 -76 -10 0
-395 -77 -11 0
-396 -78 -12 0
-394 -79 -13 0
-395 -80 -14 0
-396 -81 -15 0
-394 -82 -16 0
-395 -83 -17 0
-396 -84 -18 0
-394 -85 -19 0
-395 -86 -20 0
-396 -87 -21 0
-394 -88 -22 0
-395 -89 -23 0
-396 -90 -24 0
-394 -91 -25 0
-395 -92 -26 0
-396 -93 -27 0
-394 -94 -28 0
-395 -95 -29 0
-396 -96 -30 0
-394 -97 -31 0
-395 -98 -32 0
-396 -99 -33 0
-394 -100 -34 0
-395 -101 -35 0
-396 -102 -36 0
-394 -103 -37 0
-395 -104 -38 0
-396 -105 -39 0
-394 -106 -40 0
-395 -107 -41 0
-396 -108 -42 0
-394 -109 -43 0
-395 -110 -44 0
-396 -111 -45 0
-394 -112 -46 0
-395 -113 -47 0
-396 -114 -48 0
-394 -115 -49 0
-395 -116 -50 0
-396 -117 -51 0
-394 -118 -52 0
-395 -119 -53 0
-396 -120 -54 0
-394 -121 -55 0
-395 -122 -56 0
-396 -123 -57 0
-394 -124 -58 0
-395 -125 -59 0
-396 -126 -60 0
-394 -127 -61 0
-395 -128 -62 0
-396 -129 -63 0
-394 -130 -64 0
-395 -131 -65 0
-396 -132 -66 0
-394 -133 -67 0
-395 -134 -68 0
-396 -135 -69 0
-394 -136 -70 0
-395 -137 -71 0
-396 -138 -72 0
-394 -139 -73 0
-395 -140 -74 0
-396 -141 -75 0
-394 -142 -76 0
-395 -143 -77 0
-396 -144 -78 0
-394 -145 -79 0
-395 -146 -80 0
-396 -147 -81 0
-394 -148 -82 0
-395 -149 -83 0
-396 -150 -84 0
-394 -151 -85 0
-395 -152 -86 0
-396 -153 -87 0
-394 -154 -88 0
-395 -155 -89 0
-396 -156 -90 0
-394 -157 -91 0
-395 -158 -92 0
-396 -159 -93 0
-394 -160 -94 0
-395 -161 -95 0
-396 -162 -96 0
-394 -163 -97 0
-395 -164 -98 0
-396 -165 -99 0
-394 -166 -100 0
-395 -167 -101 0
-396 -168 -102 0
-394 -169 -103 0
-395 -170 -104 0
-396 -171 -105 0
-394 -172 -106 0
-395 -173 -107 0
-396 -174 -108 0
-394 -175 -109 0
-395 -176 -110 0
-396 -177 -111 0
-394 -178 -112 0
-395 -179 -113 0
-396 -180 -114 0
-394 -181 -115 0
-395 -182 -116 0
-396 -183 -117 0
-394 -184 -118 0
-395 -185 -119 0
-396 -186 -120 0
-394 -187 -121 0
-395 -188 -122 0
-396 -189 -123 0
-394 -190 -124 0
-395 -191 -125 0
-396 -192 -126 0
-394 -193 -127 0
-395 -194 -128 0
-396 -195 -129 0
-394 -196 -130 0
-395 -197 -131 0
-396 -198 -132 0
-394 -199 -133 0
-395 -200 -134 0
-396 -201 -135 0
-394 -202 -136 0
-395 -203 -137 0
-396 -204 -138 0
-394 -205 -139 0
-395 -206 -140 0
-396 -207 -141 0
-394 -208 -142 0
-395 -209 -143 0
-396 -210 -144 0
-394 -211 -145 0
-395 -212 -146 0
-396 -213 -147 0
-394 -214 -148 0
-395 -215 -149 0
-396 -216 -150 0
-394 -217 -151 0
-395 -218 -152 0
-396 -219 -153 0
-394 -220 -154 0
-395 -221 -155 0
-396 -222 -156 0
-394 -223 -157 0
-395 -224 -158 0
-396 -225 -159 0
-394 -226 -160 0
-395 -227 -161 0
-396 -228 -162 0
-394 -229 -163 0
-395 -230 -164 0
-396 -231 -165 0
-394 -232 -166 0
-395 -233 -167 0
-396 -234 -168 0
-394 -235 -169 0
-395 -236 -170 0
-396 -237 -171 0
-394 -238 -172 0
-395 -239 -173 0
-396 -240 -174 0
-394 -241 -175 0
-395 -242 -176 0
-396 -243 -177 0
-394 -244 -178 0
-395 -245 -179 0
-396 -246 -180 0
-394 -247 -181 0
-395 -248 -182 0
-396 -249 -183 0
-394 -250 -184 0
-395 -251 -185 0
-396 -252 -186 0
-394 -253 -187 0
-395 -254 -188 0
-396 -255 -189 0
-394 -256 -190 0
-395 -257 -191 0
-396 -258 -192 0
-394 -259 -193 0
-395 -260 -194 0
-396 -261 -195 0
-394 -262 -196 0
-395 -263 -197 0
-396 -264 -198 0
-394 -265 -199 0
-395 -266 -200 0
-396 -267 -201 0
-394 -268 -202 0
-395 -269 -203 0
-396 -270 -204 0
-394 -271 -205 0
-395 -272 -206 0
-396 -273 -207 0
-394 -274 -208 0
-395 -275 -209 0
-396 -276 -210 0
-394 -277 -211 0
-395 -278 -212 0
-396 -279 -213 0
-394 -280 -214 0
-395 -281 -215 0
-396 -282 -216 0
-394 -283 -217 0
-395 -284 -218 0
-396 -285 -219 0
-394 -286 -220 0
-395 -287 -221 0
-396 -288 -222 0
-394 -289 -223 0
-395 -290 -224 0
-396 -291 -225 0
-394 -292 -226 0
-395 -293 -227 0
-396 -294 -228 0
-394 -295 -229 0
-395 -296 -230 0
-396 -297 -231 0
-394 -298 -232 0
-395 -299 -233 0
-396 -300 -234 0
-394 -301 -235 0
-395 -302 -236 0
-396 -303 -237 0
-394 -304 -238 0
-395 -305 -239 0
-396 -306 -240 0
-394 -307 -241 0
-395 -308 -242 0
-396 -309 -243 0
-394 -310 -244 0
-395 -311 -245 0
-396 -312 -246 0
-394 -313 -247 0
-395 -314 -248 0
-396 -315 -249 0
-394 -316 -250 0
-395 -317 -251 0
-396 -318 -252 0
-394 -319 -253 0
-395 -320 -254 0
-396 -321 -255 0
-394 -322 -256 0
-395 -323 -257 0
-396 -324 -258 0
-394 -325 -259 0
-395 -326 -260 0
-396 -327 -261 0
-394 -328 -262 0
-395 -329 -263 0
-396 -330 -264 0
-394 -331 -265 0
-395 -332 -266 0
-396 -333 -267 0
-394 -334 -268 0
-395 -335 -269 0
-396 -336 -270 0
-394 -337 -271 0
-395 -338 -272 0
-396 -339 -273 0
-394 -340 -274 0
-395 -341 -275 0
-396 -342 -276 0
-394 -343 -277 0
-395 -344 -278 0
-396 -345 -279 0
-394 -346 -280 0
-395 -347 -281 0
-396 -348 -282 0
-394 -349 -283 0
-395 -350 -284 0
-396 -351 -285 0
-394 -352 -286 0
-395 -353 -287 0
-396 -354 -288 0
-394 -355 -289 0
-395 -356 -290 0
-396 -357 -291 0
-394 -358 -292 0
-395 -359 -293 0
-396 -360 -294 0
-394 -361 -295 0
-395 -362 -296 0
-396 -363 -297 0
-394 -364 -298 0
-395 -365 -299 0
-396 -366 -300 0
-394 -367 -301 0
-395 -368 -302 0
-396 -369 -303 0
-394 -370 -304 0
-395 -371 -305 0
-396 -372 -306 0
-394 -373 -307 0
-395 -374 -308 0
-396 -375 -309 0
-394 -376 -310 0
-395 -377 -311 0
-396 -378 -312 0
-394 -379 -313 0
-395 -380 -314 0
-396 -381 -315 0
-394 -382 -316 0
-395 -383 -317 0
-396 -384 -318 0
-394 -385 -319 0
-395 -386 -320 0
-396 -387 -321 0
-394 -388 -322 0
-395 -389 -323 0
-396 -390 -324 0
-394 -391 -325 0
-395 -392 -326 0
-396 -393 -327 0
-394 -328 0
-395 -329 0
-396 -330 0
-397 -394 -331 0
-398 -395 -332 0
-399 -396 -333 0
-400 -394 -334 0
-401 -395 -335 0
-402 -396 -336 0
-403 -394 -337 0
-404 -395 -338 0
-405 -396 -339 0
-406 -394 -340 0
-407 -395 -341 0
-408 -396 -342 0
-409 -394 -343 0
-410 -395 -344 0
-411 -396 -345 0
-412 -394 -346 0
-413 -395 -347 0
-414 -396 -348 0
-415 -394 -349 0
-416 -395 -350 0
-417 -396 -351 0
-418 -394 -352 0
-419 -395 -353 0
-420 -396 -354 0
-421 -394 -355 0
-422 -395 -356 0
-423 -396 -357 0
-424 -394 -358 0
-425 -395 -359 0
-426 -396 -360 0
-427 -394 -361 0
-428 -395 -362 0
-429 -396 -363 0
-430 -394 -364 0
-431 -395 -365 0
-432 -396 -366 0
-433 -394 -367 0
-434 -395 -368 0
-435 -396 -369 0
-436 -394 -370 0
-437 -395 -371 0
-438 -396 -372 0
-439 -394 -373 0
-440 -395 -374 0
-441 -396 -375 0
-442 -394 -376 0
-443 -395 -377 0
-444 -396 -378 0
-445 -394 -379 0
-446 -395 -380 0
-447 -396 -381 0
-448 -394 -382 0
-449 -395 -383 0
-450 -396 -384 0
-451 -394 -385 0
-452 -395 -386 0
-453 -396 -387 0
-454 -394 -388 0
-455 -395 -389 0
-456 -396 -390 0
-457 -394 -391 0
-458 -395 -392 0
-459 -396 -393 0
-460 -394 0
-461 -395 0
-462 -396 0
-463 -397 -394 0
-464 -398 -395 0
-465 -399 -396 0
-466 -400 -394 0
-467 -401 -395 0
-468 -402 -396 0
-469 -403 -394 0
-470 -404 -395 0
-471 -405 -396 0
-472 -406 -394 0
-473 -407 -395 0
-474 -408 -396 0
-475 -409 -394 0
-476 -410 -395 0
-477 -411 -396 0
-478 -412 -394 0
-479 -413 -395 0
-480 -414 -396 0
-481 -415 -394 0
-482 -416 -395 0
-483 -417 -396 0
-484 -418 -394 0
-485 -419 -395 0
-486 -420 -396 0
-487 -421 -394 0
-488 -422 -395 0
-489 -423 -396 0
-490 -424 -394 0
-491 -425 -395 0
-492 -426 -396 0
-493 -427 -394 0
-494 -428 -395 0
-495 -429 -396 0
-496 -430 -394 0
-497 -431 -395 0
-498 -432 -396 0
-499 -433 -394 0
-500 -434 -395 0
-501 -435 -396 0
-502 -436 -394 0
-503 -437 -395 0
-504 -438 -396 0
-505 -439 -394 0
-506 -440 -395 0
-507 -441 -396 0
-508 -442 -394 0
-509 -443 -395 0
-510 -444 -396 0
-511 -445 -394 0
-512 -446 -395 0
-513 -447 -396 0
-514 -448 -394 0
-515 -449 -395 0
-516 -450 -396 0
-517 -451 -394 0
-518 -452 -395 0
-519 -453 -396 0
-520 -454 -394 0
-521 -455 -395 0
-522 -456 -396 0
-523 -457 -394 0
-524 -458 -395 0
-525 -459 -396 0
-526 -460 -394 0
-527 -461 -395 0
-528 -462 -396 0
-529 -463 -394 0
-530 -464 -395 0
-531 -465 -396 0
-532 -466 -394 0
-533 -467 -395 0
-534 -468 -396 0
-535 -469 -394 0
-536 -470 -395 0
-537 -471 -396 0
-538 -472 -394 0
-539 -473 -395 0
-540 -474 -396 0
-541 -475 -394 0
-542 -476 -395 0
-543 -477 -396 0
-544 -478 -394 0
-545 -479 -395 0
-546 -480 -396 0
-547 -481 -394 0
-548 -482 -395 0
-549 -483 -396 0
-550 -484 -394 0
-551 -485 -395 0
-552 -486 -396 0
-553 -487 -394 0
-554 -488 -395 0
-555 -489 -396 0
-556 -490 -394 0
-557 -491 -395 0
-558 -492 -396 0
-559 -493 -394 0
-560 -494 -395 0
-561 -495 -396 0
-562 -496 -394 0
-563 -497 -395 0
-564 -498 -396 0
-565 -499 -394 0
-566 -500 -395 0
-567 -501 -396 0
-568 -502 -394 0
-569 -503 -395 0
-570 -504 -396 0
-571 -505 -394 0
-572 -506 -395 0
-573 -507 -396 0
-574 -508 -394 0
-575 -509 -395 0
-576 -510 -396 0
-577 -511 -394 0
-578 -512 -395 0
-579 -513 -396 0
-580 -514 -394 0
-581 -515 -395 0
-582 -516 -396 0
-583 -517 -394 0
-584 -518 -395 0
-585 -519 -396 0
-586 -520 -394 0
-587 -521 -395 0
-588 -522 -396 0
-589 -523 -394 0
-590 -524 -395 0
-591 -525 -396 0
-592 -526 -394 0
-593 -527 -395 0
-594 -528 -396 0
-595 -529 -394 0
-596 -530 -395 0
-597 -531 -396 0
-598 -532 -394 0
-599 -533 -395 0
-600 -534 -396 0
-601 -535 -394 0
-602 -536 -395 0
-603 -537 -396 0
-604 -538 -394 0
-605 -539 -395 0
-606 -540 -396 0
-607 -541 -394 0
-608 -542 -395 0
-609 -543 -396 0
-610 -544 -394 0
-611 -545 -395 0
-612 -546 -396 0
-613 -547 -394 0
-614 -548 -395 0
-615 -549 -396 0
-616 -550 -394 0
-617 -551 -395 0
-618 -552 -396 0
-619 -553 -394 0
-620 -554 -395 0
-621 -555 -396 0
-622 -556 -394 0
-623 -557 -395 0
-624 -558 -396 0
-625 -559 -394 0
-626 -560 -395 0
-627 -561 -396 0
-628 -562 -394 0
-629 -563 -395 0
-630 -564 -396 0
-631 -565 -394 0
-632 -566 -395 0
-633 -567 -396 0
-634 -568 -394 0
-635 -569 -395 0
-636 -570 -396 0
-637 -571 -394 0
-638 -572 -395 0
-639 -573 -396 0
-640 -574 -394 0
-641 -575 -395 0
-642 -576 -396 0
-643 -577 -394 0
-644 -578 -395 0
-645 -579 -396 0
-646 -580 -394 0
-647 -581 -395 0
-648 -582 -396 0
-412 -70 -1 0
-413 -71 -2 0
-414 -72 -3 0
-412 -73 -4 0
-413 -74 -5 0
-414 -75 -6 0
-412 -76 -7 0
-413 -77 -8 0
-414 -78 -9 0
-412 -79 -10 0
-413 -80 -11 0
-414 -81 -12 0
-412 -82 -13 0
-413 -83 -14 0
-414 -84 -15 0
-412 -85 -16 0
-413 -86 -17 0
-414 -87 -18 0
-412 -88 -19 0
-413 -89 -20 0
-414 -90 -21 0
-412 -91 -22 0
-413 -92 -23 0
-414 -93 -24 0
-412 -94 -25 0
-413 -95 -26 0
-414 -96 -27 0
-412 -97 -28 0
-413 -98 -29 0
-414 -99 -30 0
-412 -100 -31 0
-413 -101 -32 0
-414 -102 -33 0
-412 -103 -34 0
-413 -104 -35 0
-414 -105 -36 0
-412 -106 -37 0
-413 -107 -38 0
-414 -108 -39 0
-412 -109 -40 0
-413 -110 -41 0
-414 -111 -42 0
-412 -112 -43 0
-413 -113 -44 0
-414 -114 -45 0
-412 -115 -46 0
-413 -116 -47 0
-414 -117 -48 0
-412 -118 -49 0
-413 -119 -50 0
-414 -120 -51 0
-412 -121 -52 0
-413 -122 -53 0
-414 -123 -54 0
-412 -124 -55 0
-413 -125 -56 0
-414 -126 -57 0
-412 -127 -58 0
-413 -128 -59 0
-414 -129 -60 0
-412 -130 -61 0
-413 -131 -62 0
-414 -132 -63 0
-412 -133 -64 0
-413 -134 -65 0
-414 -135 -66 0
-412 -136 -67 0
-413 -137 -68 0
-414 -138 -69 0
-412 -139 -70 0
-413 -140 -71 0
-414 -141 -72 0
-412 -142 -73 0
-413 -143 -74 0
-414 -144 -75 0
-412 -145 -76 0
-413 -146 -77 0
-414 -147 -78 0
-412 -148 -79 0
-413 -149 -80 0
-414 -150 -81 0
-412 -151 -82 0
-413 -152 -83 0
-414 -153 -84 0
-412 -154 -85 0
-413 -155 -86 0
-414 -156 -87 0
-412 -157 -88 0
-413 -158 -89 0
-414 -159 -90 0
-412 -160 -91 0
-413 -161 -92 0
-414 -162 -93 0
-412 -163 -94 0
-413 -164 -95 0
-414 -165 -96 0
-412 -166 -97 0
-413 -167 -98 0
-414 -168 -99 0
-412 -169 -100 0
-413 -170 -101 0
-414 -171 -102 0
-412 -172 -103 0
-413 -173 -104 0
-414 -174 -105 0
-412 -175 -106 0
-413 -176 -107 0
-414 -177 -108 0
-412 -178 -109 0
-413 -179 -110 0
-414 -180 -111 0
-412 -181 -112 0
-413 -182 -113 0
-414 -183 -114 0
-412 -184 -115 0
-413 -185 -116 0
-414 -186 -117 0
-412 -187 -118 0
-413 -188 -119 0
-414 -189 -120 0
-412 -190 -121 0
-413 -191 -122 0
-414 -192 -123 0
-412 -193 -124 0
-413 -194 -125 0
-414 -195 -126 0
-412 -196 -127 0
-413 -197 -128 0
-414 -198 -129 0
-412 -199 -130 0
-413 -200 -131 0
-414 -201 -132 0
-412 -202 -133 0
-413 -203 -134 0
-414 -204 -135 0
-412 -205 -136 0
-413 -206 -137 0
-414 -207 -138 0
-412 -208 -139 0
-413 -209 -140 0
-414 -210 -141 0
-412 -211 -142 0
-413 -212 -143 0
-414 -213 -144 0
-412 -214 -145 0
-413 -215 -146 0
-414 -216 -147 0
-412 -217 -148 0
-413 -218 -149 0
-414 -219 -150 0
-412 -220 -151 0
-413 -221 -152 0
-414 -222 -153 0
-412 -223 -154 0
-413 -224 -155 0
-414 -225 -156 0
-412 -226 -157 0
-413 -227 -158 0
-414 -228 -159 0
-412 -229 -160 0
-413 -230 -161 0
-414 -231 -162 0
-412 -232 -163 0
-413 -233 -164 0
-414 -234 -165 0
-412 -235 -166 0
-413 -236 -167 0
-414 -237 -168 0
-412 -238 -169 0
-413 -239 -170 0
-414 -240 -171 0
-412 -241 -172 0
-413 -242 -173 0
-414 -243 -174 0
-412 -244 -175 0
-413 -245 -176 0
-414 -246 -177 0
-412 -247 -178 0
-413 -248 -179 0
-414 -249 -180 0
-412 -250 -181 0
-413 -251 -182 0
-414 -252 -183 0
-412 -253 -184 0
-413 -254 -185 0
-414 -255 -186 0
-412 -256 -187 0
-413 -257 -188 0
-414 -258 -189 0
-412 -259 -190 0
-413 -260 -191 0
-414 -261 -192 0
-412 -262 -193 0
-413 -263 -194 0
-414 -264 -195 0
-412 -265 -196 0
-413 -266 -197 0
-414 -267 -198 0
-412 -268 -199 0
-413 -269 -200 0
-414 -270 -201 0
-412 -271 -202 0
-413 -272 -203 0
-414 -273 -204 0
-412 -274 -205 0
-413 -275 -206 0
-414 -276 -207 0
-412 -277 -208 0
-413 -278 -209 0
-414 -279 -210 0
-412 -280 -211 0
-413 -281 -212 0
-414 -282 -213 0
-412 -283 -214 0
-413 -284 -215 0
-414 -285 -216 0
-412 -286 -217 0
-413 -287 -218 0
-414 -288 -219 0
-412 -289 -220 0
-413 -290 -221 0
-414 -291 -222 0
-412 -292 -223 0
-413 -293 -224 0
-414 -294 -225 0
-412 -295 -226 0
-413 -296 -227 0
-414 -297 -228 0
-412 -298 -229 0
-413 -299 -230 0
-414 -300 -231 0
-412 -301 -232 0
-413 -302 -233 0
-414 -303 -234 0
-412 -304 -235 0
-413 -305 -236 0
-414 -306 -237 0
-412 -307 -238 0
-413 -308 -239 0
-414 -309 -240 0
-412 -310 -241 0
-413 -311 -242 0
-414 -312 -243 0
-412 -313 -244 0
-413 -314 -245 0
-414 -315 -246 0
-412 -316 -247 0
-413 -317 -248 0
-414 -318 -249 0
-412 -319 -250 0
-413 -320 -251 0
-414 -321 -252 0
-412 -322 -253 0
-413 -323 -254 0
-414 -324 -255 0
-412 -325 -256 0
-413 -326 -257 0
-414 -327 -258 0
-412 -328 -259 0
-413 -329 -260 0
-414 -330 -261 0
-412 -331 -262 0
-413 -332 -263 0
-414 -333 -264 0
-412 -334 -265 0
-413 -335 -266 0
-414 -336 -267 0
-412 -337 -268 0
-413 -338 -269 0
-414 -339 -270 0
-412 -340 -271 0
-413 -341 -272 0
-414 -342 -273 0
-412 -343 -274 0
-413 -344 -275 0
-414 -345 -276 0
-412 -346 -277 0
-413 -347 -278 0
-414 -348 -279 0
-412 -349 -280 0
-413 -350 -281 0
-414 -351 -282 0
-412 -352 -283 0
-413 -353 -284 0
-414 -354 -285 0
-412 -355 -286 0
-413 -356 -287 0
-414 -357 -288 0
-412 -358 -289 0
-413 -359 -290 0
-414 -360 -291 0
-412 -361 -292 0
-413 -362 -293 0
-414 -363 -294 0
-412 -364 -295 0
-413 -365 -296 0
-414 -366 -297 0
-412 -367 -298 0
-413 -368 -299 0
-414 -369 -300 0
-412 -370 -301 0
-413 -371 -302 0
-414 -372 -303 0
-412 -373 -304 0
-413 -374 -305 0
-414 -375 -306 0
-412 -376 -307 0
-413 -377 -308 0
-414 -378 -309 0
-412 -379 -310 0
-413 -380 -311 0
-414 -381 -312 0
-412 -382 -313 0
-413 -383 -314 0
-414 -384 -315 0
-412 -385 -316 0
-413 -386 -317 0
-414 -387 -318 0
-412 -388 -319 0
-413 -389 -320 0
-414 -390 -321 0
-412 -391 -322 0
-413 -392 -323 0
-414 -393 -324 0
-412 -394 -325 0
-413 -395 -326 0
-414 -396 -327 0
-412 -397 -328 0
-413 -398 -329 0
-414 -399 -330 0
-412 -400 -331 0
-413 -401 -332 0
-414 -402 -333 0
-412 -403 -334 0
-413 -404 -335 0
-414 -405 -336 0
-412 -406 -337 0
-413 -407 -338 0
-414 -408 -339 0
-412 -409 -340 0
-413 -410 -341 0
-414 -411 -342 0
-412 -343 0
-413 -344 0
-414 -345 0
-415 -412 -346 0
-416 -413 -347 0
-417 -414 -348 0
-418 -412 -349 0
-419 -413 -350 0
-420 -414 -351 0
-421 -412 -352 0
-422 -413 -353 0
-423 -414 -354 0
-424 -412 -355 0
-425 -413 -356 0
-426 -414 -357 0
-427 -412 -358 0
-428 -413 -359 0
-429 -414 -360 0
-430 -412 -361 0
-431 -413 -362 0
-432 -414 -363 0
-433 -412 -364 0
-434 -413 -365 0
-435 -414 -366 0
-436 -412 -367 0
-437 -413 -368 0
-438 -414 -369 0
-439 -412 -370 0
-440 -413 -371 0
-441 -414 -372 0
-442 -412 -373 0
-443 -413 -374 0
-444 -414 -375 0
-445 -412 -376 0
-446 -413 -377 0
-447 -414 -378 0
-448 -412 -379 0
-449 -413 -380 0
-450 -414 -381 0
-451 -412 -382 0
-452 -413 -383 0
-453 -414 -384 0
-454 -412 -385 0
-455 -413 -386 0
-456 -414 -387 0
-457 -412 -388 0
-458 -413 -389 0
-459 -414 -390 0
-460 -412 -391 0
-461 -413 -392 0
-462 -414 -393 0
-463 -412 -394 0
-464 -413 -395 0
-465 -414 -396 0
-466 -412 -397 0
-467 -413 -398 0
-468 -414 -399 0
-469 -412 -400 0
-470 -413 -401 0
-471 -414 -402 0
-472 -412 -403 0
-473 -413 -404 0
-474 -414 -405 0
-475 -412 -406 0
-476 -413 -407 0
-477 -414 -408 0
-478 -412 -409 0
-479 -413 -410 0
-480 -414 -411 0
-481 -412 0
-482 -413 0
-483 -414 0
-484 -415 -412 0
-485 -416 -413 0
-486 -417 -414 0
-487 -418 -412 0
-488 -419 -413 0
-489 -420 -414 0
-490 -421 -412 0
-491 -422 -413 0
-492 -423 -414 0
-493 -424 -412 0
-494 -425 -413 0
-495 -426 -414 0
-496 -427 -412 0
-497 -428 -413 0
-498 -429 -414 0
-499 -430 -412 0
-500 -431 -413 0
-501 -432 -414 0
-502 -433 -412 0
-503 -434 -413 0
-504 -435 -414 0
-505 -436 -412 0
-506 -437 -413 0
-507 -438 -414 0
-508 -439 -412 0
-509 -440 -413 0
-510 -441 -414 0
-511 -442 -412 0
-512 -443 -413 0
-513 -444 -414 0
-514 -445 -412 0
-515 -446 -413 0
-516 -447 -414 0
-517 -448 -412 0
-518 -449 -413 0
-519 -450 -414 0
-520 -451 -412 0
-521 -452 -413 0
-522 -453 -414 0
-523 -454 -412 0
-524 -455 -413 0
-525 -456 -414 0
-526 -457 -412 0
-527 -458 -413 0
-528 -459 -414 0
-529 -460 -412 0
-530 -461 -413 0
-531 -462 -414 0
-532 -463 -412 0
-533 -464 -413 0
-534 -465 -414 0
-535 -466 -412 0
-536 -467 -413 0
-537 -468 -414 0
-538 -469 -412 0
-539 -470 -413 0
-540 -471 -414 0
-541 -472 -412 0
-542 -473 -413 0
-543 -474 -414 0
-544 -475 -412 0
-545 -476 -413 0
-546 -477 -414 0
-547 -478 -412 0
-548 -479 -413 0
-549 -480 -414 0
-550 -481 -412 0
-551 -482 -413 0
-552 -483 -414 0
-553 -484 -412 0
-554 -485 -413 0
-555 -486 -414 0
-556 -487 -412 0
-557 -488 -413 0
-558 -489 -414 0
-559 -490 -412 0
-560 -491 -413 0
-561 -492 -414 0
-562 -493 -412 0
-563 -494 -413 0
-564 -495 -414 0
-565 -496 -412 0
-566 -497 -413 0
-567 -498 -414 0
-568 -499 -412 0
-569 -500 -413 0
-570 -501 -414 0
-571 -502 -412 0
-572 -503 -413 0
-573 -504 -414 0
-574 -505 -412 0
-575 -506 -413 0
-576 -507 -414 0
-577 -508 -412 0
-578 -509 -413 0
-579 -510 -414 0
-580 -511 -412 0
-581 -512 -413 0
-582 -513 -414 0
-583 -514 -412 0
-584 -515 -413 0
-585 -516 -414 0
-586 -517 -412 0
-587 -518 -413 0
-588 -519 -414 0
-589 -520 -412 0
-590 -521 -413 0
-591 -522 -414 0
-592 -523 -412 0
-593 -524 -413 0
-594 -525 -414 0
-595 -526 -412 0
-596 -527 -413 0
-597 -528 -414 0
-598 -529 -412 0
-599 -530 -413 0
-600 -531 -414 0
-601 -532 -412 0
-602 -533 -413 0
-603 -534 -414 0
-604 -535 -412 0
-605 -536 -413 0
-606 -537 -414 0
-607 -538 -412 0
-608 -539 -413 0
-609 -540 -414 0
-610 -541 -412 0
-611 -542 -413 0
-612 -543 -414 0
-613 -544 -412 0
-614 -545 -413 0
-615 -546 -414 0
-616 -547 -412 0
-617 -548 -413 0
-618 -549 -414 0
-619 -550 -412 0
-620 -551 -413 0
-621 -552 -414 0
-622 -553 -412 0
-623 -554 -413 0
-624 -555 -414 0
-625 -556 -412 0
-626 -557 -413 0
-627 -558 -414 0
-628 -559 -412 0
-629 -560 -413 0
-630 -561 -414 0
-631 -562 -412 0
-632 -563 -413 0
-633 -564 -414 0
-634 -565 -412 0
-635 -566 -413 0
-636 -567 -414 0
-637 -568 -412 0
-638 -569 -413 0
-639 -570 -414 0
-640 -571 -412 0
-641 -572 -413 0
-642 -573 -414 0
-643 -574 -412 0
-644 -575 -413 0
-645 -576 -414 0
-646 -577 -412 0
-647 -578 -413 0
-648 -579 -414 0
-430 -73 -1 0
-431 -74 -2 0
-432 -75 -3 0
-430 -76 -4 0
-431 -77 -5 0
-432 -78 -6 0
-430 -79 -7 0
-431 -80 -8 0
-432 -81 -9 0
-430 -82 -10 0
-431 -83 -11 0
-432 -84 -12 0
-430 -85 -13 0
-431 -86 -14 0
-432 -87 -15 0
-430 -88 -16 0
-431 -89 -17 0
-432 -90 -18 0
-430 -91 -19 0
-431 -92 -20 0
-432 -93 -21 0
-430 -94 -22 0
-431 -95 -23 0
-432 -96 -24 0
-430 -97 -25 0
-431 -98 -26 0
-432 -99 -27 0
-430 -100 -28 0
-431 -101 -29 0
-432 -102 -30 0
-430 -103 -31 0
-431 -104 -32 0
-432 -105 -33 0
-430 -106 -34 0
-431 -107 -35 0
-432 -108 -36 0
-430 -109 -37 0
-431 -110 -38 0
-432 -111 -39 0
-430 -112 -40 0
-431 -113 -41 0
-432 -114 -42 0
-430 -115 -43 0
-431 -116 -44 0
-432 -117 -45 0
-430 -118 -46 0
-431 -119 -47 0
-432 -120 -48 0
-430 -121 -49 0
-431 -122 -50 0
-432 -123 -51 0
-430 -124 -52 0
-431 -125 -53 0
-432 -126 -54 0
-430 -127 -55 0
-431 -128 -56 0
-432 -129 -57 0
-430 -130 -58 0
-431 -131 -59 0
-432 -132 -60 0
-430 -133 -61 0
-431 -134 -62 0
-432 -135 -63 0
-430 -136 -64 0
-431 -137 -65 0
-432 -138 -66 0
-430 -139 -67 0
-431 -140 -68 0
-432 -141 -69 0
-430 -142 -70 0
-431 -143 -71 0
-432 -144 -72 0
-430 -145 -73 0
-431 -146 -74 0
-432 -147 -75 0
-430 -148 -76 0
-431 -149 -77 0
-432 -150 -78 0
-430 -151 -79 0
-431 -152 -80 0
-432 -153 -81 0
-430 -154 -82 0
-431 -155 -83 0
-432 -156 -84 0
-430 -157 -85 0
-431 -158 -86 0
-432 -159 -87 0
-430 -160 -88 0
-431 -161 -89 0
-432 -162 -90 0
-430 -163 -91 0
-431 -164 -92 0
-432 -165 -93 0
-430 -166 -94 0
-431 -167 -95 0
-432 -168 -96 0
-430 -169 -97 0
-431 -170 -98 0
-432 -171 -99 0
-430 -172 -100 0
-431 -173 -101 0
-432 -174 -102 0
-430 -175 -103 0
-431 -176 -104 0
-432 -177 -105 0
-430 -178 -106 0
-431 -179 -107 0
-432 -180 -108 0
-430 -181 -109 0
-431 -182 -110 0
-432 -183 -111 0
-430 -184 -112 0
-431 -185 -113 0
-432 -186 -114 0
-430 -187 -115 0
-431 -188 -116 0
-432 -189 -117 0
-430 -190 -118 0
-431 -191 -119 0
-432 -192 -120 0
-430 -193 -121 0
-431 -194 -122 0
-432 -195 -123 0
-430 -196 -124 0
-431 -197 -125 0
-432 -198 -126 0
-430 -199 -127 0
-431 -200 -128 0
-432 -201 -129 0
-430 -202 -130 0
-431 -203 -131 0
-432 -204 -132 0
-430 -205 -133 0
-431 -206 -134 0
-432 -207 -135 0
-430 -208 -136 0
-431 -209 -137 0
-432 -210 -138 0
-430 -211 -139 0
-431 -212 -140 0
-432 -213 -141 0
-430 -214 -142 0
-431 -215 -143 0
-432 -216 -144 0
-430 -217 -145 0
-431 -218 -146 0
-432 -219 -147 0
-430 -220 -148 0
-431 -221 -149 0
-432 -222 -150 0
-430 -223 -151 0
-431 -224 -152 0
-432 -225 -153 0
-430 -226 -154 0
-431 -227 -155 0
-432 -228 -156 0
-430 -229 -157 0
-431 -230 -158 0
-432 -231 -159 0
-430 -232 -160 0
-431 -233 -161 0
-432 -234 -162 0
-430 -235 -163 0
-431 -236 -164 0
-432 -237 -165 0
-430 -238 -166 0
-431 -239 -167 0
-432 -240 -168 0
-430 -241 -169 0
-431 -242 -170 0
-432 -243 -171 0
-430 -244 -172 0
-431 -245 -173 0
-432 -246 -174 0
-430 -247 -175 0
-431 -248 -176 0
-432 -249 -177 0
-430 -250 -178 0
-431 -251 -179 0
-432 -252 -180 0
-430 -253 -181 0
-431 -254 -182 0
-432 -255 -183 0
-430 -256 -184 0
-431 -257 -185 0
-432 -258 -186 0
-430 -259 -187 0
-431 -260 -188 0
-432 -261 -189 0
-430 -262 -190 0
-431 -263 -191 0
-432 -264 -192 0
-430 -265 -193 0
-431 -266 -194 0
-432 -267 -195 0
-430 -268 -196 0
-431 -269 -197 0
-432 -270 -198 0
-430 -271 -199 0
-431 -272 -200 0
-432 -273 -201 0
-430 -274 -202 0
-431 -275 -203 0
-432 -276 -204 0
-430 -277 -205 0
-431 -278 -206 0
-432 -279 -207 0
-430 -280 -208 0
-431 -281 -209 0
-432 -282 -210 0
-430 -283 -211 0
-431 -284 -212 0
-432 -285 -213 0
-430 -286 -214 0
-431 -287 -215 0
-432 -288 -216 0
-430 -289 -217 0
-431 -290 -218 0
-432 -291 -219 0
-430 -292 -220 0
-431 -293 -221 0
-432 -294 -222 0
-430 -295 -223 0
-431 -296 -224 0
-432 -297 -225 0
-430 -298 -226 0
-431 -299 -227 0
-432 -300 -228 0
-430 -301 -229 0
-431 -302 -230 0
-432 -303 -231 0
-430 -304 -232 0
-431 -305 -233 0
-432 -306 -234 0
-430 -307 -235 0
-431 -308 -236 0
-432 -309 -237 0
-430 -310 -238 0
-431 -311 -239 0
-432 -312 -240 0
-430 -313 -241 0
-431 -314 -242 0
-432 -315 -243 0
-430 -316 -244 0
-431 -317 -245 0
-432 -318 -246 0
-430 -319 -247 0
-431 -320 -248 0
-432 -321 -249 0
-430 -322 -250 0
-431 -323 -251 0
-432 -324 -252 0
-430 -325 -253 0
-431 -326 -254 0
-432 -327 -255 0
-430 -328 -256 0
-431 -329 -257 0
-432 -330 -258 0
-430 -331 -259 0
-431 -332 -260 0
-432 -333 -261 0
-430 -334 -262 0
-431 -335 -263 0
-432 -336 -264 0
-430 -337 -265 0
-431 -338 -266 0
-432 -339 -267 0
-430 -340 -268 0
-431 -341 -269 0
-432 -342 -270 0
-430 -343 -271 0
-431 -344 -272 0
-432 -345 -273 0
-430 -346 -274 0
-431 -347 -275 0
-432 -348 -276 0
-430 -349 -277 0
-431 -350 -278 0
-432 -351 -279 0
-430 -352 -280 0
-431 -353 -281 0
-432 -354 -282 0
-430 -355 -283 0
-431 -356 -284 0
-432 -357 -285 0
-430 -358 -286 0
-431 -359 -287 0
-432 -360 -288 0
-430 -361 -289 0
-431 -362 -290 0
-432 -363 -291 0
-430 -364 -292 0
-431 -365 -293 0
-432 -366 -294 0
-430 -367 -295 0
-431 -368 -296 0
-432 -369 -297 0
-430 -370 -298 0
-431 -371 -299 0
-432 -372 -300 0
-430 -373 -301 0
-431 -374 -302 0
-432 -375 -303 0
-430 -376 -304 0
-431 -377 -305 0
-432 -378 -306 0
-430 -379 -307 0
-431 -380 -308 0
-432 -381 -309 0
-430 -382 -310 0
-431 -383 -311 0
-432 -384 -312 0
-430 -385 -313 0
-431 -386 -314 0
-432 -387 -315 0
-430 -388 -316 0
-431 -389 -317 0
-432 -390 -318 0
-430 -391 -319 0
-431 -392 -320 0
-432 -393 -321 0
-430 -394 -322 0
-431 -395 -323 0
-432 -396 -324 0
-430 -397 -325 0
-431 -398 -326 0
-432 -399 -327 0
-430 -400 -328 0
-431 -401 -329 0
-432 -402 -330 0
-430 -403 -331 0
-431 -404 -332 0
-432 -405 -333 0
-430 -406 -334 0
-431 -407 -335 0
-432 -408 -336 0
-430 -409 -337 0
-431 -410 -338 0
-432 -411 -339 0
-430 -412 -340 0
-431 -413 -341 0
-432 -414 -342 0
-430 -415 -343 0
-431 -416 -344 0
-432 -417 -345 0
-430 -418 -346 0
-431 -419 -347 0
-432 -420 -348 0
-430 -421 -349 0
-431 -422 -350 0
-432 -423 -351 0
-430 -424 -352 0
-431 -425 -353 0
-432 -426 -354 0
-430 -427 -355 0
-431 -428 -356 0
-432 -429 -357 0
-430 -358 0
-431 -359 0
-432 -360 0
-433 -430 -361 0
-434 -431 -362 0
-435 -432 -363 0
-436 -430 -364 0
-437 -431 -365 0
-438 -432 -366 0
-439 -430 -367 0
-440 -431 -368 0
-441 -432 -369 0
-442 -430 -370 0
-443 -431 -371 0
-444 -432 -372 0
-445 -430 -373 0
-446 -431 -374 0
-447 -432 -375 0
-448 -430 -376 0
-449 -431 -377 0
-450 -432 -378 0
-451 -430 -379 0
-452 -431 -380 0
-453 -432 -381 0
-454 -430 -382 0
-455 -431 -383 0
-456 -432 -384 0
-457 -430 -385 0
-458 -431 -386 0
-459 -432 -387 0
-460 -430 -388 0
-461 -431 -389 0
-462 -432 -390 0
-463 -430 -391 0
-464 -431 -392 0
-465 -432 -393 0
-466 -430 -394 0
-467 -431 -395 0
-468 -432 -396 0
-469 -430 -397 0
-470 -431 -398 0
-471 -432 -399 0
-472 -430 -400 0
-473 -431 -401 0
-474 -432 -402 0
-475 -430 -403 0
-476 -431 -404 0
-477 -432 -405 0
-478 -430 -406 0
-479 -431 -407 0
-480 -432 -408 0
-481 -430 -409 0
-482 -431 -410 0
-483 -432 -411 0
-484 -430 -412 0
-485 -431 -413 0
-486 -432 -414 0
-487 -430 -415 0
-488 -431 -416 0
-489 -432 -417 0
-490 -430 -418 0
-491 -431 -419 0
-492 -432 -420 0
-493 -430 -421 0
-494 -431 -422 0
-495 -432 -423 0
-496 -430 -424 0
-497 -431 -425 0
-498 -432 -426 0
-499 -430 -427 0
-500 -431 -428 0
-501 -432 -429 0
-502 -430 0
-503 -431 0
-504 -432 0
-505 -433 -430 0
-506 -434 -431 0
-507 -435 -432 0
-508 -436 -430 0
-509 -437 -431 0
-510 -438 -432 0
-511 -439 -430 0
-512 -440 -431 0
-513 -441 -432 0
-514 -442 -430 0
-515 -443 -431 0
-516 -444 -432 0
-517 -445 -430 0
-518 -446 -431 0
-519 -447 -432 0
-520 -448 -430 0
-521 -449 -431 0
-522 -450 -432 0
-523 -451 -430 0
-524 -452 -431 0
-525 -453 -432 0
-526 -454 -430 0
-527 -455 -431 0
-528 -456 -432 0
-529 -457 -430 0
-530 -458 -431 0
-531 -459 -432 0
-532 -460 -430 0
-533 -461 -431 0
-534 -462 -432 0
-535 -463 -430 0
-536 -464 -431 0
-537 -465 -432 0
-538 -466 -430 0
-539 -467 -431 0
-540 -468 -432 0
-541 -469 -430 0
-542 -470 -431 0
-543 -471 -432 0
-544 -472 -430 0
-545 -473 -431 0
-546 -474 -432 0
-547 -475 -430 0
-548 -476 -431 0
-549 -477 -432 0
-550 -478 -430 0
-551 -479 -431 0
-552 -480 -432 0
-553 -481 -430 0
-554 -482 -431 0
-555 -483 -432 0
-556 -484 -430 0
-557 -485 -431 0
-558 -486 -432 0
-559 -487 -430 0
-560 -488 -431 0
-561 -489 -432 0
-562 -490 -430 0
-563 -491 -431 0
-564 -492 -432 0
-565 -493 -430 0
-566 -494 -431 0
-567 -495 -432 0
-568 -496 -430 0
-569 -497 -431 0
-570 -498 -432 0
-571 -499 -430 0
-572 -500 -431 0
-573 -501 -432 0
-574 -502 -430 0
-575 -503 -431 0
-576 -504 -432 0
-577 -505 -430 0
-578 -506 -431 0
-579 -507 -432 0
-580 -508 -430 0
-581 -509 -431 0
-582 -510 -432 0
-583 -511 -430 0
-584 -512 -431 0
-585 -513 -432 0
-586 -514 -430 0
-587 -515 -431 0
-588 -516 -432 0
-589 -517 -430 0
-590 -518 -431 0
-591 -519 -432 0
-592 -520 -430 0
-593 -521 -431 0
-594 -522 -432 0
-595 -523 -430 0
-596 -524 -431 0
-597 -525 -432 0
-598 -526 -430 0
-599 -527 -431 0
-600 -528 -432 0
-601 -529 -430 0
-602 -530 -431 0
-603 -531 -432 0
-604 -532 -430 0
-605 -533 -431 0
-606 -534 -432 0
-607 -535 -430 0
-608 -536 -431 0
-609 -537 -432 0
-610 -538 -430 0
-611 -539 -431 0
-612 -540 -432 0
-613 -541 -430 0
-614 -542 -431 0
-615 -543 -432 0
-616 -544 -430 0
-617 -545 -431 0
-618 -546 -432 0
-619 -547 -430 0
-620 -548 -431 0
-621 -549 -432 0
-622 -550 -430 0
-623 -551 -431 0
-624 -552 -432 0
-625 -553 -430 0
-626 -554 -431 0
-627 -555 -432 0
-628 -556 -430 0
-629 -557 -431 0
-630 -558 -432 0
-631 -559 -430 0
-632 -560 -431 0
-633 -561 -432 0
-634 -562 -430 0
-635 -563 -431 0
-636 -564 -432 0
-637 -565 -430 0
-638 -566 -431 0
-639 -567 -432 0
-640 -568 -430 0
-641 -569 -431 0
-642 -570 -432 0
-643 -571 -430 0
-644 -572 -431 0
-645 -573 -432 0
-646 -574 -430 0
-647 -575 -431 0
-648 -576 -432 0
-448 -76 -1 0
-449 -77 -2 0
-450 -78 -3 0
-448 -79 -4 0
-449 -80 -5 0
-450 -81 -6 0
-448 -82 -7 0
-449 -83 -8 0
-450 -84 -9 0
-448 -85 -10 0
-449 -86 -11 0
-450 -87 -12 0
-448 -88 -13 0
-449 -89 -14 0
-450 -90 -15 0
-448 -91 -16 0
-449 -92 -17 0
-450 -93 -18 0
-448 -94 -19 0
-449 -95 -20 0
-450 -96 -21 0
-448 -97 -22 0
-449 -98 -23 0
-450 -99 -24 0
-448 -100 -25 0
-449 -101 -26 0
-450 -102 -27 0
-448 -103 -28 0
-449 -104 -29 0
-450 -105 -30 0
-448 -106 -31 0
-449 -107 -32 0
-450 -108 -33 0
-448 -109 -34 0
-449 -110 -35 0
-450 -111 -36 0
-448 -112 -37 0
-449 -113 -38 0
-450 -114 -39 0
-448 -115 -40 0
-449 -116 -41 0
-450 -117 -42 0
-448 -118 -43 0
-449 -119 -44 0
-450 -120 -45 0
-448 -121 -46 0
-449 -122 -47 0
-450 -123 -48 0
-448 -124 -49 0
-449 -125 -50 0
-450 -126 -51 0
-448 -127 -52 0
-449 -128 -53 0
-450 -129 -54 0
-448 -130 -55 0
-449 -131 -56 0
-450 -132 -57 0
-448 -133 -58 0
-449 -134 -59 0
-450 -135 -60 0
-448 -136 -61 0
-449 -137 -62 0
-450 -138 -63 0
-448 -139 -64 0
-449 -140 -65 0
-450 -141 -66 0
-448 -142 -67 0
-449 -143 -68 0
-450 -144 -69 0
-448 -145 -70 0
-449 -146 -71 0
-450 -147 -72 0
-448 -148 -73 0
-449 -149 -74 0
-450 -150 -75 0
-448 -151 -76 0
-449 -152 -77 0
-450 -153 -78 0
-448 -154 -79 0
-449 -155 -80 0
-450 -156 -81 0
-448 -157 -82 0
-449 -158 -83 0
-450 -159 -84 0
-448 -160 -85 0
-449 -161 -86 0
-450 -162 -87 0
-448 -163 -88 0
-449 -164 -89 0
-450 -165 -90 0
-448 -166 -91 0
-449 -167 -92 0
-450 -168 -93 0
-448 -169 -94 0
-449 -170 -95 0
-450 -171 -96 0
-448 -172 -97 0
-449 -173 -98 0
-450 -174 -99 0
-448 -175 -100 0
-449 -176 -101 0
-450 -177 -102 0
-448 -178 -103 0
-449 -179 -104 0
-450 -180 -105 0
-448 -181 -106 0
-449 -182 -107 0
-450 -183 -108 0
-448 -184 -109 0
-449 -185 -110 0
-450 -186 -111 0
-448 -187 -112 0
-449 -188 -113 0
-450 -189 -114 0
-448 -190 -115 0
-449 -191 -116 0
-450 -192 -117 0
-448 -193 -118 0
-449 -194 -119 0
-450 -195 -120 0
-448 -196 -121 0
-449 -197 -122 0
-450 -198 -123 0
-448 -199 -124 0
-449 -200 -125 0
-450 -201 -126 0
-448 -202 -127 0
-449 -203 -128 0
-450 -204 -129 0
-448 -205 -130 0
-449 -206 -131 0
-450 -207 -132 0
-448 -208 -133 0
-449 -209 -134 0
-450 -210 -135 0
-448 -211 -136 0
-449 -212 -137 0
-450 -213 -138 0
-448 -214 -139 0
-449 -215 -140 0
-450 -216 -141 0
-448 -217 -142 0
-449 -218 -143 0
-450 -219 -144 0
-448 -220 -145 0
-449 -221 -146 0
-450 -222 -147 0
-448 -223 -148 0
-449 -224 -149 0
-450 -225 -150 0
-448 -226 -151 0
-449 -227 -152 0
-450 -228 -153 0
-448 -229 -154 0
-449 -230 -155 0
-450 -231 -156 0
-448 -232 -157 0
-449 -233 -158 0
-450 -234 -159 0
-448 -235 -160 0
-449 -236 -161 0
-450 -237 -162 0
-448 -238 -163 0
-449 -239 -164 0
-450 -240 -165 0
-448 -241 -166 0
-449 -242 -167 0
-450 -243 -168 0
-448 -244 -169 0
-449 -245 -170 0
-450 -246 -171 0
-448 -247 -172 0
-449 -248 -173 0
-450 -249 -174 0
-448 -250 -175 0
-449 -251 -176 0
-450 -252 -177 0
-448 -253 -178 0
-449 -254 -179 0
-450 -255 -180 0
-448 -256 -181 0
-449 -257 -182 0
-450 -258 -183 0
-448 -259 -184 0
-449 -260 -185 0
-450 -261 -186 0
-448 -262 -187 0
-449 -263 -188 0
-450 -264 -189 0
-448 -265 -190 0
-449 -266 -191 0
-450 -267 -192 0
-448 -268 -193 0
-449 -269 -194 0
-450 -270 -195 0
-448 -271 -196 0
-449 -272 -197 0
-450 -273 -198 0
-448 -274 -199 0
-449 -275 -200 0
-450 -276 -201 0
-448 -277 -202 0
-449 -278 -203 0
-450 -279 -204 0
-448 -280 -205 0
-449 -281 -206 0
-450 -282 -207 0
-448 -283 -208 0
-449 -284 -209 0
-450 -285 -210 0
-448 -286 -211 0
-449 -287 -212 0
-450 -288 -213 0
-448 -289 -214 0
-449 -290 -215 0
-450 -291 -216 0
-448 -292 -217 0
-449 -293 -218 0
-450 -294 -219 0
-448 -295 -220 0
-449 -296 -221 0
-450 -297 -222 0
-448 -298 -223 0
-449 -299 -224 0
-450 -300 -225 0
-448 -301 -226 0
-449 -302 -227 0
-450 -303 -228 0
-448 -304 -229 0
-449 -305 -230 0
-450 -306 -231 0
-448 -307 -232 0
-449 -308 -233 0
-450 -309 -234 0
-448 -310 -235 0
-449 -311 -236 0
-450 -312 -237 0
-448 -313 -238 0
-449 -314 -239 0
-450 -315 -240 0
-448 -316 -241 0
-449 -317 -242 0
-450 -318 -243 0
-448 -319 -244 0
-449 -320 -245 0
-450 -321 -246 0
-448 -322 -247 0
-449 -323 -248 0
-450 -324 -249 0
-448 -325 -250 0
-449 -326 -251 0
-450 -327 -252 0
-448 -328 -253 0
-449 -329 -254 0
-450 -330 -255 0
-448 -331 -256 0
-449 -332 -257 0
-450 -333 -258 0
-448 -334 -259 0
-449 -335 -260 0
-450 -336 -261 0
-448 -337 -262 0
-449 -338 -263 0
-450 -339 -264 0
-448 -340 -265 0
-449 -341 -266 0
-450 -342 -267 0
-448 -343 -268 0
-449 -344 -269 0
-450 -345 -270 0
-448 -346 -271 0
-449 -347 -272 0
-450 -348 -273 0
-448 -349 -274 0
-449 -350 -275 0
-450 -351 -276 0
-448 -352 -277 0
-449 -353 -278 0
-450 -354 -279 0
-448 -355 -280 0
-449 -356 -281 0
-450 -357 -282 0
-448 -358 -283 0
-449 -359 -284 0
-450 -360 -285 0
-448 -361 -286 0
-449 -362 -287 0
-450 -363 -288 0
-448 -364 -289 0
-449 -365 -290 0
-450 -366 -291 0
-448 -367 -292 0
-449 -368 -293 0
-450 -369 -294 0
-448 -370 -295 0
-449 -371 -296 0
-450 -372 -297 0
-448 -373 -298 0
-449 -374 -299 0
-450 -375 -300 0
-448 -376 -301 0
-449 -377 -302 0
-450 -378 -303 0
-448 -379 -304 0
-449 -380 -305 0
-450 -381 -306 0
-448 -382 -307 0
-449 -383 -308 0
-450 -384 -309 0
-448 -385 -310 0
-449 -386 -311 0
-450 -387 -312 0
-448 -388 -313 0
-449 -389 -314 0
-450 -390 -315 0
-448 -391 -316 0
-449 -392 -317 0
-450 -393 -318 0
-448 -394 -319 0
-449 -395 -320 0
-450 -396 -321 0
-448 -397 -322 0
-449 -398 -323 0
-450 -399 -324 0
-448 -400 -325 0
-449 -401 -326 0
-450 -402 -327 0
-448 -403 -328 0
-449 -404 -329 0
-450 -405 -330 0
-448 -406 -331 0
-449 -407 -332 0
-450 -408 -333 0
-448 -409 -334 0
-449 -410 -335 0
-450 -411 -336 0
-448 -412 -337 0
-449 -413 -338 0
-450 -414 -339 0
-448 -415 -340 0
-449 -416 -341 0
-450 -417 -342 0
-448 -418 -343 0
-449 -419 -344 0
-450 -420 -345 0
-448 -421 -346 0
-449 -422 -347 0
-450 -423 -348 0
-448 -424 -349 0
-449 -425 -350 0
-450 -426 -351 0
-448 -427 -352 0
-449 -428 -353 0
-450 -429 -354 0
-448 -430 -355 0
-449 -431 -356 0
-450 -432 -357 0
-448 -433 -358 0
-449 -434 -359 0
-450 -435 -360 0
-448 -436 -361 0
-449 -437 -362 0
-450 -438 -363 0
-448 -439 -364 0
-449 -440 -365 0
-450 -441 -366 0
-448 -442 -367 0
-449 -443 -368 0
-450 -444 -369 0
-448 -445 -370 0
-449 -446 -371 0
-450 -447 -372 0
-448 -373 0
-449 -374 0
-450 -375 0
-451 -448 -376 0
-452 -449 -377 0
-453 -450 -378 0
-454 -448 -379 0
-455 -449 -380 0
-456 -450 -381 0
-457 -448 -382 0
-458 -449 -383 0
-459 -450 -384 0
-460 -448 -385 0
-461 -449 -386 0
-462 -450 -387 0
-463 -448 -388 0
-464 -449 -389 0
-465 -450 -390 0
-466 -448 -391 0
-467 -449 -392 0
-468 -450 -393 0
-469 -448 -394 0
-470 -449 -395 0
-471 -450 -396 0
-472 -448 -397 0
-473 -449 -398 0
-474 -450 -399 0
-475 -448 -400 0
-476 -449 -401 0
-477 -450 -402 0
-478 -448 -403 0
-479 -449 -404 0
-480 -450 -405 0
-481 -448 -406 0
-482 -449 -407 0
-483 -450 -408 0
-484 -448 -409 0
-485 -449 -410 0
-486 -450 -411 0
-487 -448 -412 0
-488 -449 -413 0
-489 -450 -414 0
-490 -448 -415 0
-491 -449 -416 0
-492 -450 -417 0
-493 -448 -418 0
-494 -449 -419 0
-495 -450 -420 0
-496 -448 -421 0
-497 -449 -422 0
-498 -450 -423 0
-499 -448 -424 0
-500 -449 -425 0
-501 -450 -426 0
-502 -448 -427 0
-503 -449 -428 0
-504 -450 -429 0
-505 -448 -430 0
-506 -449 -431 0
-507 -450 -432 0
-508 -448 -433 0
-509 -449 -434 0
-510 -450 -435 0
-511 -448 -436 0
-512 -449 -437 0
-513 -450 -438 0
-514 -448 -439 0
-515 -449 -440 0
-516 -450 -441 0
-517 -448 -442 0
-518 -449 -443 0
-519 -450 -444 0
-520 -448 -445 0
-521 -449 -446 0
-522 -450 -447 0
-523 -448 0
-524 -449 0
-525 -450 0
-526 -451 -448 0
-527 -452 -449 0
-528 -453 -450 0
-529 -454 -448 0
-530 -455 -449 0
-531 -456 -450 0
-532 -457 -448 0
-533 -458 -449 0
-534 -459 -450 0
-535 -460 -448 0
-536 -461 -449 0
-537 -462 -450 0
-538 -463 -448 0
-539 -464 -449 0
-540 -465 -450 0
-541 -466 -448 0
-542 -467 -449 0
-543 -468 -450 0
-544 -469 -448 0
-545 -470 -449 0
-546 -471 -450 0
-547 -472 -448 0
-548 -473 -449 0
-549 -474 -450 0
-550 -475 -448 0
-551 -476 -449 0
-552 -477 -450 0
-553 -478 -448 0
-554 -479 -449 0
-555 -480 -450 0
-556 -481 -448 0
-557 -482 -449 0
-558 -483 -450 0
-559 -484 -448 0
-560 -485 -449 0
-561 -486 -450 0
-562 -487 -448 0
-563 -488 -449 0
-564 -489 -450 0
-565 -490 -448 0
-566 -491 -449 0
-567 -492 -450 0
-568 -493 -448 0
-569 -494 -449 0
-570 -495 -450 0
-571 -496 -448 0
-572 -497 -449 0
-573 -498 -450 0
-574 -499 -448 0
-575 -500 -449 0
-576 -501 -450 0
-577 -502 -448 0
-578 -503 -449 0
-579 -504 -450 0
-580 -505 -448 0
-581 -506 -449 0
-582 -507 -450 0
-583 -508 -448 0
-584 -509 -449 0
-585 -510 -450 0
-586 -511 -448 0
-587 -512 -449 0
-588 -513 -450 0
-589 -514 -448 0
-590 -515 -449 0
-591 -516 -450 0
-592 -517 -448 0
-593 -518 -449 0
-594 -519 -450 0
-595 -520 -448 0
-596 -521 -449 0
-597 -522 -450 0
-598 -523 -448 0
-599 -524 -449 0
-600 -525 -450 0
-601 -526 -448 0
-602 -527 -449 0
-603 -528 -450 0
-604 -529 -448 0
-605 -530 -449 0
-606 -531 -450 0
-607 -532 -448 0
-608 -533 -449 0
-609 -534 -450 0
-610 -535 -448 0
-611 -536 -449 0
-612 -537 -450 0
-613 -538 -448 0
-614 -539 -449 0
-615 -540 -450 0
-616 -541 -448 0
-617 -542 -449 0
-618 -543 -450 0
-619 -544 -448 0
-620 -545 -449 0
-621 -546 -450 0
-622 -547 -448 0
-623 -548 -449 0
-624 -549 -450 0
-625 -550 -448 0
-626 -551 -449 0
-627 -552 -450 0
-628 -553 -448 0
-629 -554 -449 0
-630 -555 -450 0
-631 -556 -448 0
-632 -557 -449 0
-633 -558 -450 0
-634 -559 -448 0
-635 -560 -449 0
-636 -561 -450 0
-637 -562 -448 0
-638 -563 -449 0
-639 -564 -450 0
-640 -565 -448 0
-641 -566 -449 0
-642 -567 -450 0
-643 -568 -448 0
-644 -569 -449 0
-645 -570 -450 0
-646 -571 -448 0
-647 -572 -449 0
-648 -573 -450 0
-466 -79 -1 0
-467 -80 -2 0
-468 -81 -3 0
-466 -82 -4 0
-467 -83 -5 0
-468 -84 -6 0
-466 -85 -7 0
-467 -86 -8 0
-468 -87 -9 0
-466 -88 -10 0
-467 -89 -11 0
-468 -90 -12 0
-466 -91 -13 0
-467 -92 -14 0
-468 -93 -15 0
-466 -94 -16 0
-467 -95 -17 0
-468 -96 -18 0
-466 -97 -19 0
-467 -98 -20 0
-468 -99 -21 0
-466 -100 -22 0
-467 -101 -23 0
-468 -102 -24 0
-466 -103 -25 0
-467 -104 -26 0
-468 -105 -27 0
-466 -106 -28 0
-467 -107 -29 0
-468 -108 -30 0
-466 -109 -31 0
-467 -110 -32 0
-468 -111 -33 0
-466 -112 -34 0
-467 -113 -35 0
-468 -114 -36 0
-466 -115 -37 0
-467 -116 -38 0
-468 -117 -39 0
-466 -118 -40 0
-467 -119 -41 0
-468 -120 -42 0
-466 -121 -43 0
-467 -122 -44 0
-468 -123 -45 0
-466 -124 -46 0
-467 -125 -47 0
-468 -126 -48 0
-466 -127 -49 0
-467 -128 -50 0
-468 -129 -51 0
-466 -130 -52 0
-467 -131 -53 0
-468 -132 -54 0
-466 -133 -55 0
-467 -134 -56 0
-468 -135 -57 0
-466 -136 -58 0
-467 -137 -59 0
-468 -138 -60 0
-466 -139 -61 0
-467 -140 -62 0
-468 -141 -63 0
-466 -142 -64 0
-467 -143 -65 0
-468 -144 -66 0
-466 -145 -67 0
-467 -146 -68 0
-468 -147 -69 0
-466 -148 -70 0
-467 -149 -71 0
-468 -150 -72 0
-466 -151 -73 0
-467 -152 -74 0
-468 -153 -75 0
-466 -154 -76 0
-467 -155 -77 0
-468 -156 -78 0
-466 -157 -79 0
-467 -158 -80 0
-468 -159 -81 0
-466 -160 -82 0
-467 -161 -83 0
-468 -162 -84 0
-466 -163 -85 0
-467 -164 -86 0
-468 -165 -87 0
-466 -166 -88 0
-467 -167 -89 0
-468 -168 -90 0
-466 -169 -91 0
-467 -170 -92 0
-468 -171 -93 0
-466 -172 -94 0
-467 -173 -95 0
-468 -174 -96 0
-466 -175 -97 0
-467 -176 -98 0
-468 -177 -99 0
-466 -178 -100 0
-467 -179 -101 0
-468 -180 -102 0
-466 -181 -103 0
-467 -182 -104 0
-468 -183 -105 0
-466 -184 -106 0
-467 -185 -107 0
-468 -186 -108 0
-466 -187 -109 0
-467 -188 -110 0
-468 -189 -111 0
-466 -190 -112 0
-467 -191 -113 0
-468 -192 -114 0
-466 -193 -115 0
-467 -194 -116 0
-468 -195 -117 0
-466 -196 -118 0
-467 -197 -119 0
-468 -198 -120 0
-466 -199 -121 0
-467 -200 -122 0
-468 -201 -123 0
-466 -202 -124 0
-467 -203 -125 0
-468 -204 -126 0
-466 -205 -127 0
-467 -206 -128 0
-468 -207 -129 0
-466 -208 -130 0
-467 -209 -131 0
-468 -210 -132 0
-466 -211 -133 0
-467 -212 -134 0
-468 -213 -135 0
-466 -214 -136 0
-467 -215 -137 0
-468 -216 -138 0
-466 -217 -139 0
-467 -218 -140 0
-468 -219 -141 0
-466 -220 -142 0
-467 -221 -143 0
-468 -222 -144 0
-466 -223 -145 0
-467 -224 -146 0
-468 -225 -147 0
-466 -226 -148 0
-467 -227 -149 0
-468 -228 -150 0
-466 -229 -151 0
-467 -230 -152 0
-468 -231 -153 0
-466 -232 -154 0
-467 -233 -155 0
-468 -234 -156 0
-466 -235 -157 0
-467 -236 -158 0
-468 -237 -159 0
-466 -238 -160 0
-467 -239 -161 0
-468 -240 -162 0
-466 -241 -163 0
-467 -242 -164 0
-468 -243 -165 0
-466 -244 -166 0
-467 -245 -167 0
-468 -246 -168 0
-466 -247 -169 0
-467 -248 -170 0
-468 -249 -171 0
-466 -250 -172 0
-467 -251 -173 0
-468 -252 -174 0
-466 -253 -175 0
-467 -254 -176 0
-468 -255 -177 0
-466 -256 -178 0
-467 -257 -179 0
-468 -258 -180 0
-466 -259 -181 0
-467 -260 -182 0
-468 -261 -183 0
-466 -262 -184 0
-467 -263 -185 0
-468 -264 -186 0
-466 -265 -187 0
-467 -266 -188 0
-468 -267 -189 0
-466 -268 -190 0
-467 -269 -191 0
-468 -270 -192 0
-466 -271 -193 0
-467 -272 -194 0
-468 -273 -195 0
-466 -274 -196 0
-467 -275 -197 0
-468 -276 -198 0
-466 -277 -199 0
-467 -278 -200 0
-468 -279 -201 0
-466 -280 -202 0
-467 -281 -203 0
-468 -282 -204 0
-466 -283 -205 0
-467 -284 -206 0
-468 -285 -207 0
-466 -286 -208 0
-467 -287 -209 0
-468 -288 -210 0
-466 -289 -211 0
-467 -290 -212 0
-468 -291 -213 0
-466 -292 -214 0
-467 -293 -215 0
-468 -294 -216 0
-466 -295 -217 0
-467 -296 -218 0
-468 -297 -219 0
-466 -298 -220 0
-467 -299 -221 0
-468 -300 -222 0
-466 -301 -223 0
-467 -302 -224 0
-468 -303 -225 0
-466 -304 -226 0
-467 -305 -227 0
-468 -306 -228 0
-466 -307 -229 0
-467 -308 -230 0
-468 -309 -231 0
-466 -310 -232 0
-467 -311 -233 0
-468 -312 -234 0
-466 -313 -235 0
-467 -314 -236 0
-468 -315 -237 0
-466 -316 -238 0
-467 -317 -239 0
-468 -318 -240 0
-466 -319 -241 0
-467 -320 -242 0
-468 -321 -243 0
-466 -322 -244 0
-467 -323 -245 0
-468 -324 -246 0
-466 -325 -247 0
-467 -326 -248 0
-468 -327 -249 0
-466 -328 -250 0
-467 -329 -251 0
-468 -330 -252 0
-466 -331 -253 0
-467 -332 -254 0
-468 -333 -255 0
-466 -334 -256 0
-467 -335 -257 0
-468 -336 -258 0
-466 -337 -259 0
-467 -338 -260 0
-468 -339 -261 0
-466 -340 -262 0
-467 -341 -263 0
-468 -342 -264 0
-466 -343 -265 0
-467 -344 -266 0
-468 -345 -267 0
-466 -346 -268 0
-467 -347 -269 0
-468 -348 -270 0
-466 -349 -271 0
-467 -350 -272 0
-468 -351 -273 0
-466 -352 -274 0
-467 -353 -275 0
-468 -354 -276 0
-466 -355 -277 0
-467 -356 -278 0
-468 -357 -279 0
-466 -358 -280 0
-467 -359 -281 0
-468 -360 -282 0
-466 -361 -283 0
-467 -362 -284 0
-468 -363 -285 0
-466 -364 -286 0
-467 -365 -287 0
-468 -366 -288 0
-466 -367 -289 0
-467 -368 -290 0
-468 -369 -291 0
-466 -370 -292 0
-467 -371 -293 0
-468 -372 -294 0
-466 -373 -295 0
-467 -374 -296 0
-468 -375 -297 0
-466 -376 -298 0
-467 -377 -299 0
-468 -378 -300 0
-466 -379 -301 0
-467 -380 -302 0
-468 -381 -303 0
-466 -382 -304 0
-467 -383 -305 0
-468 -384 -306 0
-466 -385 -307 0
-467 -386 -308 0
-468 -387 -309 0
-466 -388 -310 0
-467 -389 -311 0
-468 -390 -312 0
-466 -391 -313 0
-467 -392 -314 0
-468 -393 -315 0
-466 -394 -316 0
-467 -395 -317 0
-468 -396 -318 0
-466 -397 -319 0
-467 -398 -320 0
-468 -399 -321 0
-466 -400 -322 0
-467 -401 -323 0
-468 -402 -324 0
-466 -403 -325 0
-467 -404 -326 0
-468 -405 -327 0
-466 -406 -328 0
-467 -407 -329 0
-468 -408 -330 0
-466 -409 -331 0
-467 -410 -332 0
-468 -411 -333 0
-466 -412 -334 0
-467 -413 -335 0
-468 -414 -336 0
-466 -415 -337 0
-467 -416 -338 0
-468 -417 -339 0
-466 -418 -340 0
-467 -419 -341 0
-468 -420 -342 0
-466 -421 -343 0
-467 -422 -344 0
-468 -423 -345 0
-466 -424 -346 0
-467 -425 -347 0
-468 -426 -348 0
-466 -427 -349 0
-467 -428 -350 0
-468 -429 -351 0
-466 -430 -352 0
-467 -431 -353 0
-468 -432 -354 0
-466 -433 -355 0
-467 -434 -356 0
-468 -435 -357 0
-466 -436 -358 0
-467 -437 -359 0
-468 -438 -360 0
-466 -439 -361 0
-467 -440 -362 0
-468 -441 -363 0
-466 -442 -364 0
-467 -443 -365 0
-468 -444 -366 0
-466 -445 -367 0
-467 -446 -368 0
-468 -447 -369 0
-466 -448 -370 0
-467 -449 -371 0
-468 -450 -372 0
-466 -451 -373 0
-467 -452 -374 0
-468 -453 -375 0
-466 -454 -376 0
-467 -455 -377 0
-468 -456 -378 0
-466 -457 -379 0
-467 -458 -380 0
-468 -459 -381 0
-466 -460 -382 0
-467 -461 -383 0
-468 -462 -384 0
-466 -463 -385 0
-467 -464 -386 0
-468 -465 -387 0
-466 -388 0
-467 -389 0
-468 -390 0
-469 -466 -391 0
-470 -467 -392 0
-471 -468 -393 0
-472 -466 -394 0
-473 -467 -395 0
-474 -468 -396 0
-475 -466 -397 0
-476 -467 -398 0
-477 -468 -399 0
-478 -466 -400 0
-479 -467 -401 0
-480 -468 -402 0
-481 -466 -403 0
-482 -467 -404 0
-483 -468 -405 0
-484 -466 -406 0
-485 -467 -407 0
-486 -468 -408 0
-487 -466 -409 0
-488 -467 -410 0
-489 -468 -411 0
-490 -466 -412 0
-491 -467 -413 0
-492 -468 -414 0
-493 -466 -415 0
-494 -467 -416 0
-495 -468 -417 0
-496 -466 -418 0
-497 -467 -419 0
-498 -468 -420 0
-499 -466 -421 0
-500 -467 -422 0
-501 -468 -423 0
-502 -466 -424 0
-503 -467 -425 0
-504 -468 -426 0
-505 -466 -427 0
-506 -467 -428 0
-507 -468 -429 0
-508 -466 -430 0
-509 -467 -431 0
-510 -468 -432 0
-511 -466 -433 0
-512 -467 -434 0
-513 -468 -435 0
-514 -466 -436 0
-515 -467 -437 0
-516 -468 -438 0
-517 -466 -439 0
-518 -467 -440 0
-519 -468 -441 0
-520 -466 -442 0
-521 -467 -443 0
-522 -468 -444 0
-523 -466 -445 0
-524 -467 -446 0
-525 -468 -447 0
-526 -466 -448 0
-527 -467 -449 0
-528 -468 -450 0
-529 -466 -451 0
-530 -467 -452 0
-531 -468 -453 0
-532 -466 -454 0
-533 -467 -455 0
-534 -468 -456 0
-535 -466 -457 0
-536 -467 -458 0
-537 -468 -459 0
-538 -466 -460 0
-539 -467 -461 0
-540 -468 -462 0
-541 -466 -463 0
-542 -467 -464 0
-543 -468 -465 0
-544 -466 0
-545 -467 0
-546 -468 0
-547 -469 -466 0
-548 -470 -467 0
-549 -471 -468 0
-550 -472 -466 0
-551 -473 -467 0
-552 -474 -468 0
-553 -475 -466 0
-554 -476 -467 0
-555 -477 -468 0
-556 -478 -466 0
-557 -479 -467 0
-558 -480 -468 0
-559 -481 -466 0
-560 -482 -467 0
-561 -483 -468 0
-562 -484 -466 0
-563 -485 -467 0
-564 -486 -468 0
-565 -487 -466 0
-566 -488 -467 0
-567 -489 -468 0
-568 -490 -466 0
-569 -491 -467 0
-570 -492 -468 0
-571 -493 -466 0
-572 -494 -467 0
-573 -495 -468 0
-574 -496 -466 0
-575 -497 -467 0
-576 -498 -468 0
-577 -499 -466 0
-578 -500 -467 0
-579 -501 -468 0
-580 -502 -466 0
-581 -503 -467 0
-582 -504 -468 0
-583 -505 -466 0
-584 -506 -467 0
-585 -507 -468 0
-586 -508 -466 0
-587 -509 -467 0
-588 -510 -468 0
-589 -511 -466 0
-590 -512 -467 0
-591 -513 -468 0
-592 -514 -466 0
-593 -515 -467 0
-594 -516 -468 0
-595 -517 -466 0
-596 -518 -467 0
-597 -519 -468 0
-598 -520 -466 0
-599 -521 -467 0
-600 -522 -468 0
-601 -523 -466 0
-602 -524 -467 0
-603 -525 -468 0
-604 -526 -466 0
-605 -527 -467 0
-606 -528 -468 0
-607 -529 -466 0
-608 -530 -467 0
-609 -531 -468 0
-610 -532 -466 0
-611 -533 -467 0
-612 -534 -468 0
-613 -535 -466 0
-614 -536 -467 0
-615 -537 -468 0
-616 -538 -466 0
-617 -539 -467 0
-618 -540 -468 0
-619 -541 -466 0
-620 -542 -467 0
-621 -543 -468 0
-622 -544 -466 0
-623 -545 -467 0
-624 -546 -468 0
-625 -547 -466 0
-626 -548 -467 0
-627 -549 -468 0
-628 -550 -466 0
-629 -551 -467 0
-630 -552 -468 0
-631 -553 -466 0
-632 -554 -467 0
-633 -555 -468 0
-634 -556 -466 0
-635 -557 -467 0
-636 -558 -468 0
-637 -559 -466 0
-638 -560 -467 0
-639 -561 -468 0
-640 -562 -466 0
-641 -563 -467 0
-642 -564 -468 0
-643 -565 -466 0
-644 -566 -467 0
-645 -567 -468 0
-646 -568 -466 0
-647 -569 -467 0
-648 -570 -468 0
-484 -82 -1 0
-485 -83 -2 0
-486 -84 -3 0
-484 -85 -4 0
-485 -86 -5 0
-486 -87 -6 0
-484 -88 -7 0
-485 -89 -8 0
-486 -90 -9 0
-484 -91 -10 0
-485 -92 -11 0
-486 -93 -12 0
-484 -94 -13 0
-485 -95 -14 0
-486 -96 -15 0
-484 -97 -16 0
-485 -98 -17 0
-486 -99 -18 0
-484 -100 -19 0
-485 -101 -20 0
-486 -102 -21 0
-484 -103 -22 0
-485 -104 -23 0
-486 -105 -24 0
-484 -106 -25 0
-485 -107 -26 0
-486 -108 -27 0
-484 -109 -28 0
-485 -110 -29 0
-486 -111 -30 0
-484 -112 -31 0
-485 -113 -32 0
-486 -114 -33 0
-484 -115 -34 0
-485 -116 -35 0
-486 -117 -36 0
-484 -118 -37 0
-485 -119 -38 0
-486 -120 -39 0
-484 -121 -40 0
-485 -122 -41 0
-486 -123 -42 0
-484 -124 -43 0
-485 -125 -44 0
-486 -126 -45 0
-484 -127 -46 0
-485 -128 -47 0
-486 -129 -48 0
-484 -130 -49 0
-485 -131 -50 0
-486 -132 -51 0
-484 -133 -52 0
-485 -134 -53 0
-486 -135 -54 0
-484 -136 -55 0
-485 -137 -56 0
-486 -138 -57 0
-484 -139 -58 0
-485 -140 -59 0
-486 -141 -60 0
-484 -142 -61 0
-485 -143 -62 0
-486 -144 -63 0
-484 -145 -64 0
-485 -146 -65 0
-486 -147 -66 0
-484 -148 -67 0
-485 -149 -68 0
-486 -150 -69 0
-484 -151 -70 0
-485 -152 -71 0
-486 -153 -72 0
-484 -154 -73 0
-485 -155 -74 0
-486 -156 -75 0
-484 -157 -76 0
-485 -158 -77 0
-486 -159 -78 0
-484 -160 -79 0
-485 -161 -80 0
-486 -162 -81 0
-484 -163 -82 0
-485 -164 -83 0
-486 -165 -84 0
-484 -166 -85 0
-485 -167 -86 0
-486 -168 -87 0
-484 -169 -88 0
-485 -170 -89 0
-486 -171 -90 0
-484 -172 -91 0
-485 -173 -92 0
-486 -174 -93 0
-484 -175 -94 0
-485 -176 -95 0
-486 -177 -96 0
-484 -178 -97 0
-485 -179 -98 0
-486 -180 -99 0
-484 -181 -100 0
-485 -182 -101 0
-486 -183 -102 0
-484 -184 -103 0
-485 -185 -104 0
-486 -186 -105 0
-484 -187 -106 0
-485 -188 -107 0
-486 -189 -108 0
-484 -190 -109 0
-485 -191 -110 0
-486 -192 -111 0
-484 -193 -112 0
-485 -194 -113 0
-486 -195 -114 0
-484 -196 -115 0
-485 -197 -116 0
-486 -198 -117 0
-484 -199 -118 0
-485 -200 -119 0
-486 -201 -120 0
-484 -202 -121 0
-485 -203 -122 0
-486 -204 -123 0
-484 -205 -124 0
-485 -206 -125 0
-486 -207 -126 0
-484 -208 -127 0
-485 -209 -128 0
-486 -210 -129 0
-484 -211 -130 0
-485 -212 -131 0
-486 -213 -132 0
-484 -214 -133 0
-485 -215 -134 0
-486 -216 -135 0
-484 -217 -136 0
-485 -218 -137 0
-486 -219 -138 0
-484 -220 -139 0
-485 -221 -140 0
-486 -222 -141 0
-484 -223 -142 0
-485 -224 -143 0
-486 -225 -144 0
-484 -226 -145 0
-485 -227 -146 0
-486 -228 -147 0
-484 -229 -148 0
-485 -230 -149 0
-486 -231 -150 0
-484 -232 -151 0
-485 -233 -152 0
-486 -234 -153 0
-484 -235 -154 0
-485 -236 -155 0
-486 -237 -156 0
-484 -238 -157 0
-485 -239 -158 0
-486 -240 -159 0
-484 -241 -160 0
-485 -242 -161 0
-486 -243 -162 0
-484 -244 -163 0
-485 -245 -164 0
-486 -246 -165 0
-484 -247 -166 0
-485 -248 -167 0
-486 -249 -168 0
-484 -250 -169 0
-485 -251 -170 0
-486 -252 -171 0
-484 -253 -172 0
-485 -254 -173 0
-486 -255 -174 0
-484 -256 -175 0
-485 -257 -176 0
-486 -258 -177 0
-484 -259 -178 0
-485 -260 -179 0
-486 -261 -180 0
-484 -262 -181 0
-485 -263 -182 0
-486 -264 -183 0
-484 -265 -184 0
-485 -266 -185 0
-486 -267 -186 0
-484 -268 -187 0
-485 -269 -188 0
-486 -270 -189 0
-484 -271 -190 0
-485 -272 -191 0
-486 -273 -192 0
-484 -274 -193 0
-485 -275 -194 0
-486 -276 -195 0
-484 -277 -196 0
-485 -278 -197 0
-486 -279 -198 0
-484 -280 -199 0
-485 -281 -200 0
-486 -282 -201 0
-484 -283 -202 0
-485 -284 -203 0
-486 -285 -204 0
-484 -286 -205 0
-485 -287 -206 0
-486 -288 -207 0
-484 -289 -208 0
-485 -290 -209 0
-486 -291 -210 0
-484 -292 -211 0
-485 -293 -212 0
-486 -294 -213 0
-484 -295 -214 0
-485 -296 -215 0
-486 -297 -216 0
-484 -298 -217 0
-485 -299 -218 0
-486 -300 -219 0
-484 -301 -220 0
-485 -302 -221 0
-486 -303 -222 0
-484 -304 -223 0
-485 -305 -224 0
-486 -306 -225 0
-484 -307 -226 0
-485 -308 -227 0
-486 -309 -228 0
-484 -310 -229 0
-485 -311 -230 0
-486 -312 -231 0
-484 -313 -232 0
-485 -314 -233 0
-486 -315 -234 0
-484 -316 -235 0
-485 -317 -236 0
-486 -318 -237 0
-484 -319 -238 0
-485 -320 -239 0
-486 -321 -240 0
-484 -322 -241 0
-485 -323 -242 0
-486 -324 -243 0
-484 -325 -244 0
-485 -326 -245 0
-486 -327 -246 0
-484 -328 -247 0
-485 -329 -248 0
-486 -330 -249 0
-484 -331 -250 0
-485 -332 -251 0
-486 -333 -252 0
-484 -334 -253 0
-485 -335 -254 0
-486 -336 -255 0
-484 -337 -256 0
-485 -338 -257 0
-486 -339 -258 0
-484 -340 -259 0
-485 -341 -260 0
-486 -342 -261 0
-484 -343 -262 0
-485 -344 -263 0
-486 -345 -264 0
-484 -346 -265 0
-485 -347 -266 0
-486 -348 -267 0
-484 -349 -268 0
-485 -350 -269 0
-486 -351 -270 0
-484 -352 -271 0
-485 -353 -272 0
-486 -354 -273 0
-484 -355 -274 0
-485 -356 -275 0
-486 -357 -276 0
-484 -358 -277 0
-485 -359 -278 0
-486 -360 -279 0
-484 -361 -280 0
-485 -362 -281 0
-486 -363 -282 0
-484 -364 -283 0
-485 -365 -284 0
-486 -366 -285 0
-484 -367 -286 0
-485 -368 -287 0
-486 -369 -288 0
-484 -370 -289 0
-485 -371 -290 0
-486 -372 -291 0
-484 -373 -292 0
-485 -374 -293 0
-486 -375 -294 0
-484 -376 -295 0
-485 -377 -296 0
-486 -378 -297 0
-484 -379 -298 0
-485 -380 -299 0
-486 -381 -300 0
-484 -382 -301 0
-485 -383 -302 0
-486 -384 -303 0
-484 -385 -304 0
-485 -386 -305 0
-486 -387 -306 0
-484 -388 -307 0
-485 -389 -308 0
-486 -390 -309 0
-484 -391 -310 0
-485 -392 -311 0
-486 -393 -312 0
-484 -394 -313 0
-485 -395 -314 0
-486 -396 -315 0
-484 -397 -316 0
-485 -398 -317 0
-486 -399 -318 0
-484 -400 -319 0
-485 -401 -320 0
-486 -402 -321 0
-484 -403 -322 0
-485 -404 -323 0
-486 -405 -324 0
-484 -406 -325 0
-485 -407 -326 0
-486 -408 -327 0
-484 -409 -328 0
-485 -410 -329 0
-486 -411 -330 0
-484 -412 -331 0
-485 -413 -332 0
-486 -414 -333 0
-484 -415 -334 0
-485 -416 -335 0
-486 -417 -336 0
-484 -418 -337 0
-485 -419 -338 0
-486 -420 -339 0
-484 -421 -340 0
-485 -422 -341 0
-486 -423 -342 0
-484 -424 -343 0
-485 -425 -344 0
-486 -426 -345 0
-484 -427 -346 0
-485 -428 -347 0
-486 -429 -348 0
-484 -430 -349 0
-485 -431 -350 0
-486 -432 -351 0
-484 -433 -352 0
-485 -434 -353 0
-486 -435 -354 0
-484 -436 -355 0
-485 -437 -356 0
-486 -438 -357 0
-484 -439 -358 0
-485 -440 -359 0
-486 -441 -360 0
-484 -442 -361 0
-485 -443 -362 0
-486 -444 -363 0
-484 -445 -364 0
-485 -446 -365 0
-486 -447 -366 0
-484 -448 -367 0
-485 -449 -368 0
-486 -450 -369 0
-484 -451 -370 0
-485 -452 -371 0
-486 -453 -372 0
-484 -454 -373 0
-485 -455 -374 0
-486 -456 -375 0
-484 -457 -376 0
-485 -458 -377 0
-486 -459 -378 0
-484 -460 -379 0
-485 -461 -380 0
-486 -462 -381 0
-484 -463 -382 0
-485 -464 -383 0
-486 -465 -384 0
-484 -466 -385 0
-485 -467 -386 0
-486 -468 -387 0
-484 -469 -388 0
-485 -470 -389 0
-486 -471 -390 0
-484 -472 -391 0
-485 -473 -392 0
-486 -474 -393 0
-484 -475 -394 0
-485 -476 -395 0
-486 -477 -396 0
-484 -478 -397 0
-485 -479 -398 0
-486 -480 -399 0
-484 -481 -400 0
-485 -482 -401 0
-486 -483 -402 0
-484 -403 0
-485 -404 0
-486 -405 0
-487 -484 -406 0
-488 -485 -407 0
-489 -486 -408 0
-490 -484 -409 0
-491 -485 -410 0
-492 -486 -411 0
-493 -484 -412 0
-494 -485 -413 0
-495 -486 -414 0
-496 -484 -415 0
-497 -485 -416 0
-498 -486 -417 0
-499 -484 -418 0
-500 -485 -419 0
-501 -486 -420 0
-502 -484 -421 0
-503 -485 -422 0
-504 -486 -423 0
-505 -484 -424 0
-506 -485 -425 0
-507 -486 -426 0
-508 -484 -427 0
-509 -485 -428 0
-510 -486 -429 0
-511 -484 -430 0
-512 -485 -431 0
-513 -486 -432 0
-514 -484 -433 0
-515 -485 -434 0
-516 -486 -435 0
-517 -484 -436 0
-518 -485 -437 0
-519 -486 -438 0
-520 -484 -439 0
-521 -485 -440 0
-522 -486 -441 0
-523 -484 -442 0
-524 -485 -443 0
-525 -486 -444 0
-526 -484 -445 0
-527 -485 -446 0
-528 -486 -447 0
-529 -484 -448 0
-530 -485 -449 0
-531 -486 -450 0
-532 -484 -451 0
-533 -485 -452 0
-534 -486 -453 0
-535 -484 -454 0
-536 -485 -455 0
-537 -486 -456 0
-538 -484 -457 0
-539 -485 -458 0
-540 -486 -459 0
-541 -484 -460 0
-542 -485 -461 0
-543 -486 -462 0
-544 -484 -463 0
-545 -485 -464 0
-546 -486 -465 0
-547 -484 -466 0
-548 -485 -467 0
-549 -486 -468 0
-550 -484 -469 0
-551 -485 -470 0
-552 -486 -471 0
-553 -484 -472 0
-554 -485 -473 0
-555 -486 -474 0
-556 -484 -475 0
-557 -485 -476 0
-558 -486 -477 0
-559 -484 -478 0
-560 -485 -479 0
-561 -486 -480 0
-562 -484 -481 0
-563 -485 -482 0
-564 -486 -483 0
-565 -484 0
-566 -485 0
-567 -486 0
-568 -487 -484 0
-569 -488 -485 0
-570 -489 -486 0
-571 -490 -484 0
-572 -491 -485 0
-573 -492 -486 0
-574 -493 -484 0
-575 -494 -485 0
-576 -495 -486 0
-577 -496 -484 0
-578 -497 -485 0
-579 -498 -486 0
-580 -499 -484 0
-581 -500 -485 0
-582 -501 -486 0
-583 -502 -484 0
-584 -503 -485 0
-585 -504 -486 0
-586 -505 -484 0
-587 -506 -485 0
-588 -507 -486 0
-589 -508 -484 0
-590 -509 -485 0
-591 -510 -486 0
-592 -511 -484 0
-593 -512 -485 0
-594 -513 -486 0
-595 -514 -484 0
-596 -515 -485 0
-597 -516 -486 0
-598 -517 -484 0
-599 -518 -485 0
-600 -519 -486 0
-601 -520 -484 0
-602 -521 -485 0
-603 -522 -486 0
-604 -523 -484 0
-605 -524 -485 0
-606 -525 -486 0
-607 -526 -484 0
-608 -527 -485 0
-609 -528 -486 0
-610 -529 -484 0
-611 -530 -485 0
-612 -531 -486 0
-613 -532 -484 0
-614 -533 -485 0
-615 -534 -486 0
-616 -535 -484 0
-617 -536 -485 0
-618 -537 -486 0
-619 -538 -484 0
-620 -539 -485 0
-621 -540 -486 0
-622 -541 -484 0
-623 -542 -485 0
-624 -543 -486 0
-625 -544 -484 0
-626 -545 -485 0
-627 -546 -486 0
-628 -547 -484 0
-629 -548 -485 0
-630 -549 -486 0
-631 -550 -484 0
-632 -551 -485 0
-633 -552 -486 0
-634 -553 -484 0
-635 -554 -485 0
-636 -555 -486 0
-637 -556 -484 0
-638 -557 -485 0
-639 -558 -486 0
-640 -559 -484 0
-641 -560 -485 0
-642 -561 -486 0
-643 -562 -484 0
-644 -563 -485 0
-645 -564 -486 0
-646 -565 -484 0
-647 -566 -485 0
-648 -567 -486 0
-502 -85 -1 0
-503 -86 -2 0
-504 -87 -3 0
-502 -88 -4 0
-503 -89 -5 0
-504 -90 -6 0
-502 -91 -7 0
-503 -92 -8 0
-504 -93 -9 0
-502 -94 -10 0
-503 -95 -11 0
-504 -96 -12 0
-502 -97 -13 0
-503 -98 -14 0
-504 -99 -15 0
-502 -100 -16 0
-503 -101 -17 0
-504 -102 -18 0
-502 -103 -19 0
-503 -104 -20 0
-504 -105 -21 0
-502 -106 -22 0
-503 -107 -23 0
-504 -108 -24 0
-502 -109 -25 0
-503 -110 -26 0
-504 -111 -27 0
-502 -112 -28 0
-503 -113 -29 0
-504 -114 -30 0
-502 -115 -31 0
-503 -116 -32 0
-504 -117 -33 0
-502 -118 -34 0
-503 -119 -35 0
-504 -120 -36 0
-502 -121 -37 0
-503 -122 -38 0
-504 -123 -39 0
-502 -124 -40 0
-503 -125 -41 0
-504 -126 -42 0
-502 -127 -43 0
-503 -128 -44 0
-504 -129 -45 0
-502 -130 -46 0
-503 -131 -47 0
-504 -132 -48 0
-502 -133 -49 0
-503 -134 -50 0
-504 -135 -51 0
-502 -136 -52 0
-503 -137 -53 0
-504 -138 -54 0
-502 -139 -55 0
-503 -140 -56 0
-504 -141 -57 0
-502 -142 -58 0
-503 -143 -59 0
-504 -144 -60 0
-502 -145 -61 0
-503 -146 -62 0
-504 -147 -63 0
-502 -148 -64 0
-503 -149 -65 0
-504 -150 -66 0
-502 -151 -67 0
-503 -152 -68 0
-504 -153 -69 0
-502 -154 -70 0
-503 -155 -71 0
-504 -156 -72 0
-502 -157 -73 0
-503 -158 -74 0
-504 -159 -75 0
-502 -160 -76 0
-503 -161 -77 0
-504 -162 -78 0
-502 -163 -79 0
-503 -164 -80 0
-504 -165 -81 0
-502 -166 -82 0
-503 -167 -83 0
-504 -168 -84 0
-502 -169 -85 0
-503 -170 -86 0
-504 -171 -87 0
-502 -172 -88 0
-503 -173 -89 0
-504 -174 -90 0
-502 -175 -91 0
-503 -176 -92 0
-504 -177 -93 0
-502 -178 -94 0
-503 -179 -95 0
-504 -180 -96 0
-502 -181 -97 0
-503 -182 -98 0
-504 -183 -99 0
-502 -184 -100 0
-503 -185 -101 0
-504 -186 -102 0
-502 -187 -103 0
-503 -188 -104 0
-504 -189 -105 0
-502 -190 -106 0
-503 -191 -107 0
-504 -192 -108 0
-502 -193 -109 0
-503 -194 -110 0
-504 -195 -111 0
-502 -196 -112 0
-503 -197 -113 0
-504 -198 -114 0
-502 -199 -115 0
-503 -200 -116 0
-504 -201 -117 0
-502 -202 -118 0
-503 -203 -119 0
-504 -204 -120 0
-502 -205 -121 0
-503 -206 -122 0
-504 -207 -123 0
-502 -208 -124 0
-503 -209 -125 0
-504 -210 -126 0
-502 -211 -127 0
-503 -212 -128 0
-504 -213 -129 0
-502 -214 -130 0
-503 -215 -131 0
-504 -216 -132 0
-502 -217 -133 0
-503 -218 -134 0
-504 -219 -135 0
-502 -220 -136 0
-503 -221 -137 0
-504 -222 -138 0
-502 -223 -139 0
-503 -224 -140 0
-504 -225 -141 0
-502 -226 -142 0
-503 -227 -143 0
-504 -228 -144 0
-502 -229 -145 0
-503 -230 -146 0
-504 -231 -147 0
-502 -232 -148 0
-503 -233 -149 0
-504 -234 -150 0
-502 -235 -151 0
-503 -236 -152 0
-504 -237 -153 0
-502 -238 -154 0
-503 -239 -155 0
-504 -240 -156 0
-502 -241 -157 0
-503 -242 -158 0
-504 -243 -159 0
-502 -244 -160 0
-503 -245 -161 0
-504 -246 -162 0
-502 -247 -163 0
-503 -248 -164 0
-504 -249 -165 0
-502 -250 -166 0
-503 -251 -167 0
-504 -252 -168 0
-502 -253 -169 0
-503 -254 -170 0
-504 -255 -171 0
-502 -256 -172 0
-503 -257 -173 0
-504 -258 -174 0
-502 -259 -175 0
-503 -260 -176 0
-504 -261 -177 0
-502 -262 -178 0
-503 -263 -179 0
-504 -264 -180 0
-502 -265 -181 0
-503 -266 -182 0
-504 -267 -183 0
-502 -268 -184 0
-503 -269 -185 0
-504 -270 -186 0
-502 -271 -187 0
-503 -272 -188 0
-504 -273 -189 0
-502 -274 -190 0
-503 -275 -191 0
-504 -276 -192 0
-502 -277 -193 0
-503 -278 -194 0
-504 -279 -195 0
-502 -280 -196 0
-503 -281 -197 0
-504 -282 -198 0
-502 -283 -199 0
-503 -284 -200 0
-504 -285 -201 0
-502 -286 -202 0
-503 -287 -203 0
-504 -288 -204 0
-502 -289 -205 0
-503 -290 -206 0
-504 -291 -207 0
-502 -292 -208 0
-503 -293 -209 0
-504 -294 -210 0
-502 -295 -211 0
-503 -296 -212 0
-504 -297 -213 0
-502 -298 -214 0
-503 -299 -215 0
-504 -300 -216 0
-502 -301 -217 0
-503 -302 -218 0
-504 -303 -219 0
-502 -304 -220 0
-503 -305 -221 0
-504 -306 -222 0
-502 -307 -223 0
-503 -308 -224 0
-504 -309 -225 0
-502 -310 -226 0
-503 -311 -227 0
-504 -312 -228 0
-502 -313 -229 0
-503 -314 -230 0
-504 -315 -231 0
-502 -316 -232 0
-503 -317 -233 0
-504 -318 -234 0
-502 -319 -235 0
-503 -320 -236 0
-504 -321 -237 0
-502 -322 -238 0
-503 -323 -239 0
-504 -324 -240 0
-502 -325 -241 0
-503 -326 -242 0
-504 -327 -243 0
-502 -328 -244 0
-503 -329 -245 0
-504 -330 -246 0
-502 -331 -247 0
-503 -332 -248 0
-504 -333 -249 0
-502 -334 -250 0
-503 -335 -251 0
-504 -336 -252 0
-502 -337 -253 0
-503 -338 -254 0
-504 -339 -255 0
-502 -340 -256 0
-503 -341 -257 0
-504 -342 -258 0
-502 -343 -259 0
-503 -344 -260 0
-504 -345 -261 0
-502 -346 -262 0
-503 -347 -263 0
-504 -348 -264 0
-502 -349 -265 0
-503 -350 -266 0
-504 -351 -267 0
-502 -352 -268 0
-503 -353 -269 0
-504 -354 -270 0
-502 -355 -271 0
-503 -356 -272 0
-504 -357 -273 0
-502 -358 -274 0
-503 -359 -275 0
-504 -360 -276 0
-502 -361 -277 0
-503 -362 -278 0
-504 -363 -279 0
-502 -364 -280 0
-503 -365 -281 0
-504 -366 -282 0
-502 -367 -283 0
-503 -368 -284 0
-504 -369 -285 0
-502 -370 -286 0
-503 -371 -287 0
-504 -372 -288 0
-502 -373 -289 0
-503 -374 -290 0
-504 -375 -291 0
-502 -376 -292 0
-503 -377 -293 0
-504 -378 -294 0
-502 -379 -295 0
-503 -380 -296 0
-504 -381 -297 0
-502 -382 -298 0
-503 -383 -299 0
-504 -384 -300 0
-502 -385 -301 0
-503 -386 -302 0
-504 -387 -303 0
-502 -388 -304 0
-503 -389 -305 0
-504 -390 -306 0
-502 -391 -307 0
-503 -392 -308 0
-504 -393 -309 0
-502 -394 -310 0
-503 -395 -311 0
-504 -396 -312 0
-502 -397 -313 0
-503 -398 -314 0
-504 -399 -315 0
-502 -400 -316 0
-503 -401 -317 0
-504 -402 -318 0
-502 -403 -319 0
-503 -404 -320 0
-504 -405 -321 0
-502 -406 -322 0
-503 -407 -323 0
-504 -408 -324 0
-502 -409 -325 0
-503 -410 -326 0
-504 -411 -327 0
-502 -412 -328 0
-503 -413 -329 0
-504 -414 -330 0
-502 -415 -331 0
-503 -416 -332 0
-504 -417 -333 0
-502 -418 -334 0
-503 -419 -335 0
-504 -420 -336 0
-502 -421 -337 0
-503 -422 -338 0
-504 -423 -339 0
-502 -424 -340 0
-503 -425 -341 0
-504 -426 -342 0
-502 -427 -343 0
-503 -428 -344 0
-504 -429 -345 0
-502 -430 -346 0
-503 -431 -347 0
-504 -432 -348 0
-502 -433 -349 0
-503 -434 -350 0
-504 -435 -351 0
-502 -436 -352 0
-503 -437 -353 0
-504 -438 -354 0
-502 -439 -355 0
-503 -440 -356 0
-504 -441 -357 0
-502 -442 -358 0
-503 -443 -359 0
-504 -444 -360 0
-502 -445 -361 0
-503 -446 -362 0
-504 -447 -363 0
-502 -448 -364 0
-503 -449 -365 0
-504 -450 -366 0
-502 -451 -367 0
-503 -452 -368 0
-504 -453 -369 0
-502 -454 -370 0
-503 -455 -371 0
-504 -456 -372 0
-502 -457 -373 0
-503 -458 -374 0
-504 -459 -375 0
-502 -460 -376 0
-503 -461 -377 0
-504 -462 -378 0
-502 -463 -379 0
-503 -464 -380 0
-504 -465 -381 0
-502 -466 -382 0
-503 -467 -383 0
-504 -468 -384 0
-502 -469 -385 0
-503 -470 -386 0
-504 -471 -387 0
-502 -472 -388 0
-503 -473 -389 0
-504 -474 -390 0
-502 -475 -391 0
-503 -476 -392 0
-504 -477 -393 0
-502 -478 -394 0
-503 -479 -395 0
-504 -480 -396 0
-502 -481 -397 0
-503 -482 -398 0
-504 -483 -399 0
-502 -484 -400 0
-503 -485 -401 0
-504 -486 -402 0
-502 -487 -403 0
-503 -488 -404 0
-504 -489 -405 0
-502 -490 -406 0
-503 -491 -407 0
-504 -492 -408 0
-502 -493 -409 0
-503 -494 -410 0
-504 -495 -411 0
-502 -496 -412 0
-503 -497 -413 0
-504 -498 -414 0
-502 -499 -415 0
-503 -500 -416 0
-504 -501 -417 0
-502 -418 0
-503 -419 0
-504 -420 0
-505 -502 -421 0
-506 -503 -422 0
-507 -504 -423 0
-508 -502 -424 0
-509 -503 -425 0
-510 -504 -426 0
-511 -502 -427 0
-512 -503 -428 0
-513 -504 -429 0
-514 -502 -430 0
-515 -503 -431 0
-516 -504 -432 0
-517 -502 -433 0
-518 -503 -434 0
-519 -504 -435 0
-520 -502 -436 0
-521 -503 -437 0
-522 -504 -438 0
-523 -502 -439 0
-524 -503 -440 0
-525 -504 -441 0
-526 -502 -442 0
-527 -503 -443 0
-528 -504 -444 0
-529 -502 -445 0
-530 -503 -446 0
-531 -504 -447 0
-532 -502 -448 0
-533 -503 -449 0
-534 -504 -450 0
-535 -502 -451 0
-536 -503 -452 0
-537 -504 -453 0
-538 -502 -454 0
-539 -503 -455 0
-540 -504 -456 0
-541 -502 -457 0
-542 -503 -458 0
-543 -504 -459 0
-544 -502 -460 0
-545 -503 -461 0
-546 -504 -462 0
-547 -502 -463 0
-548 -503 -464 0
-549 -504 -465 0
-550 -502 -466 0
-551 -503 -467 0
-552 -504 -468 0
-553 -502 -469 0
-554 -503 -470 0
-555 -504 -471 0
-556 -502 -472 0
-557 -503 -473 0
-558 -504 -474 0
-559 -502 -475 0
-560 -503 -476 0
-561 -504 -477 0
-562 -502 -478 0
-563 -503 -479 0
-564 -504 -480 0
-565 -502 -481 0
-566 -503 -482 0
-567 -504 -483 0
-568 -502 -484 0
-569 -503 -485 0
-570 -504 -486 0
-571 -502 -487 0
-572 -503 -488 0
-573 -504 -489 0
-574 -502 -490 0
-575 -503 -491 0
-576 -504 -492 0
-577 -502 -493 0
-578 -503 -494 0
-579 -504 -495 0
-580 -502 -496 0
-581 -503 -497 0
-582 -504 -498 0
-583 -502 -499 0
-584 -503 -500 0
-585 -504 -501 0
-586 -502 0
-587 -503 0
-588 -504 0
-589 -505 -502 0
-590 -506 -503 0
-591 -507 -504 0
-592 -508 -502 0
-593 -509 -503 0
-594 -510 -504 0
-595 -511 -502 0
-596 -512 -503 0
-597 -513 -504 0
-598 -514 -502 0
-599 -515 -503 0
-600 -516 -504 0
-601 -517 -502 0
-602 -518 -503 0
-603 -519 -504 0
-604 -520 -502 0
-605 -521 -503 0
-606 -522 -504 0
-607 -523 -502 0
-608 -524 -503 0
-609 -525 -504 0
-610 -526 -502 0
-611 -527 -503 0
-612 -528 -504 0
-613 -529 -502 0
-614 -530 -503 0
-615 -531 -504 0
-616 -532 -502 0
-617 -533 -503 0
-618 -534 -504 0
-619 -535 -502 0
-620 -536 -503 0
-621 -537 -504 0
-622 -538 -502 0
-623 -539 -503 0
-624 -540 -504 0
-625 -541 -502 0
-626 -542 -503 0
-627 -543 -504 0
-628 -544 -502 0
-629 -545 -503 0
-630 -546 -504 0
-631 -547 -502 0
-632 -548 -503 0
-633 -549 -504 0
-634 -550 -502 0
-635 -551 -503 0
-636 -552 -504 0
-637 -553 -502 0
-638 -554 -503 0
-639 -555 -504 0
-640 -556 -502 0
-641 -557 -503 0
-642 -558 -504 0
-643 -559 -502 0
-644 -560 -503 0
-645 -561 -504 0
-646 -562 -502 0
-647 -563 -503 0
-648 -564 -504 0
-520 -88 -1 0
-521 -89 -2 0
-522 -90 -3 0
-520 -91 -4 0
-521 -92 -5 0
-522 -93 -6 0
-520 -94 -7 0
-521 -95 -8 0
-522 -96 -9 0
-520 -97 -10 0
-521 -98 -11 0
-522 -99 -12 0
-520 -100 -13 0
-521 -101 -14 0
-522 -102 -15 0
-520 -103 -16 0
-521 -104 -17 0
-522 -105 -18 0
-520 -106 -19 0
-521 -107 -20 0
-522 -108 -21 0
-520 -109 -22 0
-521 -110 -23 0
-522 -111 -24 0
-520 -112 -25 0
-521 -113 -26 0
-522 -114 -27 0
-520 -115 -28 0
-521 -116 -29 0
-522 -117 -30 0
-520 -118 -31 0
-521 -119 -32 0
-522 -120 -33 0
-520 -121 -34 0
-521 -122 -35 0
-522 -123 -36 0
-520 -124 -37 0
-521 -125 -38 0
-522 -126 -39 0
-520 -127 -40 0
-521 -128 -41 0
-522 -129 -42 0
-520 -130 -43 0
-521 -131 -44 0
-522 -132 -45 0
-520 -133 -46 0
-521 -134 -47 0
-522 -135 -48 0
-520 -136 -49 0
-521 -137 -50 0
-522 -138 -51 0
-520 -139 -52 0
-521 -140 -53 0
-522 -141 -54 0
-520 -142 -55 0
-521 -143 -56 0
-522 -144 -57 0
-520 -145 -58 0
-521 -146 -59 0
-522 -147 -60 0
-520 -148 -61 0
-521 -149 -62 0
-522 -150 -63 0
-520 -151 -64 0
-521 -152 -65 0
-522 -153 -66 0
-520 -154 -67 0
-521 -155 -68 0
-522 -156 -69 0
-520 -157 -70 0
-521 -158 -71 0
-522 -159 -72 0
-520 -160 -73 0
-521 -161 -74 0
-522 -162 -75 0
-520 -163 -76 0
-521 -164 -77 0
-522 -165 -78 0
-520 -166 -79 0
-521 -167 -80 0
-522 -168 -81 0
-520 -169 -82 0
-521 -170 -83 0
-522 -171 -84 0
-520 -172 -85 0
-521 -173 -86 0
-522 -174 -87 0
-520 -175 -88 0
-521 -176 -89 0
-522 -177 -90 0
-520 -178 -91 0
-521 -179 -92 0
-522 -180 -93 0
-520 -181 -94 0
-521 -182 -95 0
-522 -183 -96 0
-520 -184 -97 0
-521 -185 -98 0
-522 -186 -99 0
-520 -187 -100 0
-521 -188 -101 0
-522 -189 -102 0
-520 -190 -103 0
-521 -191 -104 0
-522 -192 -105 0
-520 -193 -106 0
-521 -194 -107 0
-522 -195 -108 0
-520 -196 -109 0
-521 -197 -110 0
-522 -198 -111 0
-520 -199 -112 0
-521 -200 -113 0
-522 -201 -114 0
-520 -202 -115 0
-521 -203 -116 0
-522 -204 -117 0
-520 -205 -118 0
-521 -206 -119 0
-522 -207 -120 0
-520 -208 -121 0
-521 -209 -122 0
-522 -210 -123 0
-520 -211 -124 0
-521 -212 -125 0
-522 -213 -126 0
-520 -214 -127 0
-521 -215 -128 0
-522 -216 -129 0
-520 -217 -130 0
-521 -218 -131 0
-522 -219 -132 0
-520 -220 -133 0
-521 -221 -134 0
-522 -222 -135 0
-520 -223 -136 0
-521 -224 -137 0
-522 -225 -138 0
-520 -226 -139 0
-521 -227 -140 0
-522 -228 -141 0
-520 -229 -142 0
-521 -230 -143 0
-522 -231 -144 0
-520 -232 -145 0
-521 -233 -146 0
-522 -234 -147 0
-520 -235 -148 0
-521 -236 -149 0
-522 -237 -150 0
-520 -238 -151 0
-521 -239 -152 0
-522 -240 -153 0
-520 -241 -154 0
-521 -242 -155 0
-522 -243 -156 0
-520 -244 -157 0
-521 -245 -158 0
-522 -246 -159 0
-520 -247 -160 0
-521 -248 -161 0
-522 -249 -162 0
-520 -250 -163 0
-521 -251 -164 0
-522 -252 -165 0
-520 -253 -166 0
-521 -254 -167 0
-522 -255 -168 0
-520 -256 -169 0
-521 -257 -170 0
-522 -258 -171 0
-520 -259 -172 0
-521 -260 -173 0
-522 -261 -174 0
-520 -262 -175 0
-521 -263 -176 0
-522 -264 -177 0
-520 -265 -178 0
-521 -266 -179 0
-522 -267 -180 0
-520 -268 -181 0
-521 -269 -182 0
-522 -270 -183 0
-520 -271 -184 0
-521 -272 -185 0
-522 -273 -186 0
-520 -274 -187 0
-521 -275 -188 0
-522 -276 -189 0
-520 -277 -190 0
-521 -278 -191 0
-522 -279 -192 0
-520 -280 -193 0
-521 -281 -194 0
-522 -282 -195 0
-520 -283 -196 0
-521 -284 -197 0
-522 -285 -198 0
-520 -286 -199 0
-521 -287 -200 0
-522 -288 -201 0
-520 -289 -202 0
-521 -290 -203 0
-522 -291 -204 0
-520 -292 -205 0
-521 -293 -206 0
-522 -294 -207 0
-520 -295 -208 0
-521 -296 -209 0
-522 -297 -210 0
-520 -298 -211 0
-521 -299 -212 0
-522 -300 -213 0
-520 -301 -214 0
-521 -302 -215 0
-522 -303 -216 0
-520 -304 -217 0
-521 -305 -218 0
-522 -306 -219 0
-520 -307 -220 0
-521 -308 -221 0
-522 -309 -222 0
-520 -310 -223 0
-521 -311 -224 0
-522 -312 -225 0
-520 -313 -226 0
-521 -314 -227 0
-522 -315 -228 0
-520 -316 -229 0
-521 -317 -230 0
-522 -318 -231 0
-520 -319 -232 0
-521 -320 -233 0
-522 -321 -234 0
-520 -322 -235 0
-521 -323 -236 0
-522 -324 -237 0
-520 -325 -238 0
-521 -326 -239 0
-522 -327 -240 0
-520 -328 -241 0
-521 -329 -242 0
-522 -330 -243 0
-520 -331 -244 0
-521 -332 -245 0
-522 -333 -246 0
-520 -334 -247 0
-521 -335 -248 0
-522 -336 -249 0
-520 -337 -250 0
-521 -338 -251 0
-522 -339 -252 0
-520 -340 -253 0
-521 -341 -254 0
-522 -342 -255 0
-520 -343 -256 0
-521 -344 -257 0
-522 -345 -258 0
-520 -346 -259 0
-521 -347 -260 0
-522 -348 -261 0
-520 -349 -262 0
-521 -350 -263 0
-522 -351 -264 0
-520 -352 -265 0
-521 -353 -266 0
-522 -354 -267 0
-520 -355 -268 0
-521 -356 -269 0
-522 -357 -270 0
-520 -358 -271 0
-521 -359 -272 0
-522 -360 -273 0
-520 -361 -274 0
-521 -362 -275 0
-522 -363 -276 0
-520 -364 -277 0
-521 -365 -278 0
-522 -366 -279 0
-520 -367 -280 0
-521 -368 -281 0
-522 -369 -282 0
-520 -370 -283 0
-521 -371 -284 0
-522 -372 -285 0
-520 -373 -286 0
-521 -374 -287 0
-522 -375 -288 0
-520 -376 -289 0
-521 -377 -290 0
-522 -378 -291 0
-520 -379 -292 0
-521 -380 -293 0
-522 -381 -294 0
-520 -382 -295 0
-521 -383 -296 0
-522 -384 -297 0
-520 -385 -298 0
-521 -386 -299 0
-522 -387 -300 0
-520 -388 -301 0
-521 -389 -302 0
-522 -390 -303 0
-520 -391 -304 0
-521 -392 -305 0
-522 -393 -306 0
-520 -394 -307 0
-521 -395 -308 0
-522 -396 -309 0
-520 -397 -310 0
-521 -398 -311 0
-522 -399 -312 0
-520 -400 -313 0
-521 -401 -314 0
-522 -402 -315 0
-520 -403 -316 0
-521 -404 -317 0
-522 -405 -318 0
-520 -406 -319 0
-521 -407 -320 0
-522 -408 -321 0
-520 -409 -322 0
-521 -410 -323 0
-522 -411 -324 0
-520 -412 -325 0
-521 -413 -326 0
-522 -414 -327 0
-520 -415 -328 0
-521 -416 -329 0
-522 -417 -330 0
-520 -418 -331 0
-521 -419 -332 0
-522 -420 -333 0
-520 -421 -334 0
-521 -422 -335 0
-522 -423 -336 0
-520 -424 -337 0
-521 -425 -338 0
-522 -426 -339 0
-520 -427 -340 0
-521 -428 -341 0
-522 -429 -342 0
-520 -430 -343 0
-521 -431 -344 0
-522 -432 -345 0
-520 -433 -346 0
-521 -434 -347 0
-522 -435 -348 0
-520 -436 -349 0
-521 -437 -350 0
-522 -438 -351 0
-520 -439 -352 0
-521 -440 -353 0
-522 -441 -354 0
-520 -442 -355 0
-521 -443 -356 0
-522 -444 -357 0
-520 -445 -358 0
-521 -446 -359 0
-522 -447 -360 0
-520 -448 -361 0
-521 -449 -362 0
-522 -450 -363 0
-520 -451 -364 0
-521 -452 -365 0
-522 -453 -366 0
-520 -454 -367 0
-521 -455 -368 0
-522 -456 -369 0
-520 -457 -370 0
-521 -458 -371 0
-522 -459 -372 0
-520 -460 -373 0
-521 -461 -374 0
-522 -462 -375 0
-520 -463 -376 0
-521 -464 -377 0
-522 -465 -378 0
-520 -466 -379 0
-521 -467 -380 0
-522 -468 -381 0
-520 -469 -382 0
-521 -470 -383 0
-522 -471 -384 0
-520 -472 -385 0
-521 -473 -386 0
-522 -474 -387 0
-520 -475 -388 0
-521 -476 -389 0
-522 -477 -390 0
-520 -478 -391 0
-521 -479 -392 0
-522 -480 -393 0
-520 -481 -394 0
-521 -482 -395 0
-522 -483 -396 0
-520 -484 -397 0
-521 -485 -398 0
-522 -486 -399 0
-520 -487 -400 0
-521 -488 -401 0
-522 -489 -402 0
-520 -490 -403 0
-521 -491 -404 0
-522 -492 -405 0
-520 -493 -406 0
-521 -494 -407 0
-522 -495 -408 0
-520 -496 -409 0
-521 -497 -410 0
-522 -498 -411 0
-520 -499 -412 0
-521 -500 -413 0
-522 -501 -414 0
-520 -502 -415 0
-521 -503 -416 0
-522 -504 -417 0
-520 -505 -418 0
-521 -506 -419 0
-522 -507 -420 0
-520 -508 -421 0
-521 -509 -422 0
-522 -510 -423 0
-520 -511 -424 0
-521 -512 -425 0
-522 -513 -426 0
-520 -514 -427 0
-521 -515 -428 0
-522 -516 -429 0
-520 -517 -430 0
-521 -518 -431 0
-522 -519 -432 0
-520 -433 0
-521 -434 0
-522 -435 0
-523 -520 -436 0
-524 -521 -437 0
-525 -522 -438 0
-526 -520 -439 0
-527 -521 -440 0
-528 -522 -441 0
-529 -520 -442 0
-530 -521 -443 0
-531 -522 -444 0
-532 -520 -445 0
-533 -521 -446 0
-534 -522 -447 0
-535 -520 -448 0
-536 -521 -449 0
-537 -522 -450 0
-538 -520 -451 0
-539 -521 -452 0
-540 -522 -453 0
-541 -520 -454 0
-542 -521 -455 0
-543 -522 -456 0
-544 -520 -457 0
-545 -521 -458 0
-546 -522 -459 0
-547 -520 -460 0
-548 -521 -461 0
-549 -522 -462 0
-550 -520 -463 0
-551 -521 -464 0
-552 -522 -465 0
-553 -520 -466 0
-554 -521 -467 0
-555 -522 -468 0
-556 -520 -469 0
-557 -521 -470 0
-558 -522 -471 0
-559 -520 -472 0
-560 -521 -473 0
-561 -522 -474 0
-562 -520 -475 0
-563 -521 -476 0
-564 -522 -477 0
-565 -520 -478 0
-566 -521 -479 0
-567 -522 -480 0
-568 -520 -481 0
-569 -521 -482 0
-570 -522 -483 0
-571 -520 -484 0
-572 -521 -485 0
-573 -522 -486 0
-574 -520 -487 0
-575 -521 -488 0
-576 -522 -489 0
-577 -520 -490 0
-578 -521 -491 0
-579 -522 -492 0
-580 -520 -493 0
-581 -521 -494 0
-582 -522 -495 0
-583 -520 -496 0
-584 -521 -497 0
-585 -522 -498 0
-586 -520 -499 0
-587 -521 -500 0
-588 -522 -501 0
-589 -520 -502 0
-590 -521 -503 0
-591 -522 -504 0
-592 -520 -505 0
-593 -521 -506 0
-594 -522 -507 0
-595 -520 -508 0
-596 -521 -509 0
-597 -522 -510 0
-598 -520 -511 0
-599 -521 -512 0
-600 -522 -513 0
-601 -520 -514 0
-602 -521 -515 0
-603 -522 -516 0
-604 -520 -517 0
-605 -521 -518 0
-606 -522 -519 0
-607 -520 0
-608 -521 0
-609 -522 0
-610 -523 -520 0
-611 -524 -521 0
-612 -525 -522 0
-613 -526 -520 0
-614 -527 -521 0
-615 -528 -522 0
-616 -529 -520 0
-617 -530 -521 0
-618 -531 -522 0
-619 -532 -520 0
-620 -533 -521 0
-621 -534 -522 0
-622 -535 -520 0
-623 -536 -521 0
-624 -537 -522 0
-625 -538 -520 0
-626 -539 -521 0
-627 -540 -522 0
-628 -541 -520 0
-629 -542 -521 0
-630 -543 -522 0
-631 -544 -520 0
-632 -545 -521 0
-633 -546 -522 0
-634 -547 -520 0
-635 -548 -521 0
-636 -549 -522 0
-637 -550 -520 0
-638 -551 -521 0
-639 -552 -522 0
-640 -553 -520 0
-641 -554 -521 0
-642 -555 -522 0
-643 -556 -520 0
-644 -557 -521 0
-645 -558 -522 0
-646 -559 -520 0
-647 -560 -521 0
-648 -561 -522 0
-538 -91 -1 0
-539 -92 -2 0
-540 -93 -3 0
-538 -94 -4 0
-539 -95 -5 0
-540 -96 -6 0
-538 -97 -7 0
-539 -98 -8 0
-540 -99 -9 0
-538 -100 -10 0
-539 -101 -11 0
-540 -102 -12 0
-538 -103 -13 0
-539 -104 -14 0
-540 -105 -15 0
-538 -106 -16 0
-539 -107 -17 0
-540 -108 -18 0
-538 -109 -19 0
-539 -110 -20 0
-540 -111 -21 0
-538 -112 -22 0
-539 -113 -23 0
-540 -114 -24 0
-538 -115 -25 0
-539 -116 -26 0
-540 -117 -27 0
-538 -118 -28 0
-539 -119 -29 0
-540 -120 -30 0
-538 -121 -31 0
-539 -122 -32 0
-540 -123 -33 0
-538 -124 -34 0
-539 -125 -35 0
-540 -126 -36 0
-538 -127 -37 0
-539 -128 -38 0
-540 -129 -39 0
-538 -130 -40 0
-539 -131 -41 0
-540 -132 -42 0
-538 -133 -43 0
-539 -134 -44 0
-540 -135 -45 0
-538 -136 -46 0
-539 -137 -47 0
-540 -138 -48 0
-538 -139 -49 0
-539 -140 -50 0
-540 -141 -51 0
-538 -142 -52 0
-539 -143 -53 0
-540 -144 -54 0
-538 -145 -55 0
-539 -146 -56 0
-540 -147 -57 0
-538 -148 -58 0
-539 -149 -59 0
-540 -150 -60 0
-538 -151 -61 0
-539 -152 -62 0
-540 -153 -63 0
-538 -154 -64 0
-539 -155 -65 0
-540 -156 -66 0
-538 -157 -67 0
-539 -158 -68 0
-540 -159 -69 0
-538 -160 -70 0
-539 -161 -71 0
-540 -162 -72 0
-538 -163 -73 0
-539 -164 -74 0
-540 -165 -75 0
-538 -166 -76 0
-539 -167 -77 0
-540 -168 -78 0
-538 -169 -79 0
-539 -170 -80 0
-540 -171 -81 0
-538 -172 -82 0
-539 -173 -83 0
-540 -174 -84 0
-538 -175 -85 0
-539 -176 -86 0
-540 -177 -87 0
-538 -178 -88 0
-539 -179 -89 0
-540 -180 -90 0
-538 -181 -91 0
-539 -182 -92 0
-540 -183 -93 0
-538 -184 -94 0
-539 -185 -95 0
-540 -186 -96 0
-538 -187 -97 0
-539 -188 -98 0
-540 -189 -99 0
-538 -190 -100 0
-539 -191 -101 0
-540 -192 -102 0
-538 -193 -103 0
-539 -194 -104 0
-540 -195 -105 0
-538 -196 -106 0
-539 -197 -107 0
-540 -198 -108 0
-538 -199 -109 0
-539 -200 -110 0
-540 -201 -111 0
-538 -202 -112 0
-539 -203 -113 0
-540 -204 -114 0
-538 -205 -115 0
-539 -206 -116 0
-540 -207 -117 0
-538 -208 -118 0
-539 -209 -119 0
-540 -210 -120 0
-538 -211 -121 0
-539 -212 -122 0
-540 -213 -123 0
-538 -214 -124 0
-539 -215 -125 0
-540 -216 -126 0
-538 -217 -127 0
-539 -218 -128 0
-540 -219 -129 0
-538 -220 -130 0
-539 -221 -131 0
-540 -222 -132 0
-538 -223 -133 0
-539 -224 -134 0
-540 -225 -135 0
-538 -226 -136 0
-539 -227 -137 0
-540 -228 -138 0
-538 -229 -139 0
-539 -230 -140 0
-540 -231 -141 0
-538 -232 -142 0
-539 -233 -143 0
-540 -234 -144 0
-538 -235 -145 0
-539 -236 -146 0
-540 -237 -147 0
-538 -238 -148 0
-539 -239 -149 0
-540 -240 -150 0
-538 -241 -151 0
-539 -242 -152 0
-540 -243 -153 0
-538 -244 -154 0
-539 -245 -155 0
-540 -246 -156 0
-538 -247 -157 0
-539 -248 -158 0
-540 -249 -159 0
-538 -250 -160 0
-539 -251 -161 0
-540 -252 -162 0
-538 -253 -163 0
-539 -254 -164 0
-540 -255 -165 0
-538 -256 -166 0
-539 -257 -167 0
-540 -258 -168 0
-538 -259 -169 0
-539 -260 -170 0
-540 -261 -171 0
-538 -262 -172 0
-539 -263 -173 0
-540 -264 -174 0
-538 -265 -175 0
-539 -266 -176 0
-540 -267 -177 0
-538 -268 -178 0
-539 -269 -179 0
-540 -270 -180 0
-538 -271 -181 0
-539 -272 -182 0
-540 -273 -183 0
-538 -274 -184 0
-539 -275 -185 0
-540 -276 -186 0
-538 -277 -187 0
-539 -278 -188 0
-540 -279 -189 0
-538 -280 -190 0
-539 -281 -191 0
-540 -282 -192 0
-538 -283 -193 0
-539 -284 -194 0
-540 -285 -195 0
-538 -286 -196 0
-539 -287 -197 0
-540 -288 -198 0
-538 -289 -199 0
-539 -290 -200 0
-540 -291 -201 0
-538 -292 -202 0
-539 -293 -203 0
-540 -294 -204 0
-538 -295 -205 0
-539 -296 -206 0
-540 -297 -207 0
-538 -298 -208 0
-539 -299 -209 0
-540 -300 -210 0
-538 -301 -211 0
-539 -302 -212 0
-540 -303 -213 0
-538 -304 -214 0
-539 -305 -215 0
-540 -306 -216 0
-538 -307 -217 0
-539 -308 -218 0
-540 -309 -219 0
-538 -310 -220 0
-539 -311 -221 0
-540 -312 -222 0
-538 -313 -223 0
-539 -314 -224 0
-540 -315 -225 0
-538 -316 -226 0
-539 -317 -227 0
-540 -318 -228 0
-538 -319 -229 0
-539 -320 -230 0
-540 -321 -231 0
-538 -322 -232 0
-539 -323 -233 0
-540 -324 -234 0
-538 -325 -235 0
-539 -326 -236 0
-540 -327 -237 0
-538 -328 -238 0
-539 -329 -239 0
-540 -330 -240 0
-538 -331 -241 0
-539 -332 -242 0
-540 -333 -243 0
-538 -334 -244 0
-539 -335 -245 0
-540 -336 -246 0
-538 -337 -247 0
-539 -338 -248 0
-540 -339 -249 0
-538 -340 -250 0
-539 -341 -251 0
-540 -342 -252 0
-538 -343 -253 0
-539 -344 -254 0
-540 -345 -255 0
-538 -346 -256 0
-539 -347 -257 0
-540 -348 -258 0
-538 -349 -259 0
-539 -350 -260 0
-540 -351 -261 0
-538 -352 -262 0
-539 -353 -263 0
-540 -354 -264 0
-538 -355 -265 0
-539 -356 -266 0
-540 -357 -267 0
-538 -358 -268 0
-539 -359 -269 0
-540 -360 -270 0
-538 -361 -271 0
-539 -362 -272 0
-540 -363 -273 0
-538 -364 -274 0
-539 -365 -275 0
-540 -366 -276 0
-538 -367 -277 0
-539 -368 -278 0
-540 -369 -279 0
-538 -370 -280 0
-539 -371 -281 0
-540 -372 -282 0
-538 -373 -283 0
-539 -374 -284 0
-540 -375 -285 0
-538 -376 -286 0
-539 -377 -287 0
-540 -378 -288 0
-538 -379 -289 0
-539 -380 -290 0
-540 -381 -291 0
-538 -382 -292 0
-539 -383 -293 0
-540 -384 -294 0
-538 -385 -295 0
-539 -386 -296 0
-540 -387 -297 0
-538 -388 -298 0
-539 -389 -299 0
-540 -390 -300 0
-538 -391 -301 0
-539 -392 -302 0
-540 -393 -303 0
-538 -394 -304 0
-539 -395 -305 0
-540 -396 -306 0
-538 -397 -307 0
-539 -398 -308 0
-540 -399 -309 0
-538 -400 -310 0
-539 -401 -311 0
-540 -402 -312 0
-538 -403 -313 0
-539 -404 -314 0
-540 -405 -315 0
-538 -406 -316 0
-539 -407 -317 0
-540 -408 -318 0
-538 -409 -319 0
-539 -410 -320 0
-540 -411 -321 0
-538 -412 -322 0
-539 -413 -323 0
-540 -414 -324 0
-538 -415 -325 0
-539 -416 -326 0
-540 -417 -327 0
-538 -418 -328 0
-539 -419 -329 0
-540 -420 -330 0
-538 -421 -331 0
-539 -422 -332 0
-540 -423 -333 0
-538 -424 -334 0
-539 -425 -335 0
-540 -426 -336 0
-538 -427 -337 0
-539 -428 -338 0
-540 -429 -339 0
-538 -430 -340 0
-539 -431 -341 0
-540 -432 -342 0
-538 -433 -343 0
-539 -434 -344 0
-540 -435 -345 0
-538 -436 -346 0
-539 -437 -347 0
-540 -438 -348 0
-538 -439 -349 0
-539 -440 -350 0
-540 -441 -351 0
-538 -442 -352 0
-539 -443 -353 0
-540 -444 -354 0
-538 -445 -355 0
-539 -446 -356 0
-540 -447 -357 0
-538 -448 -358 0
-539 -449 -359 0
-540 -450 -360 0
-538 -451 -361 0
-539 -452 -362 0
-540 -453 -363 0
-538 -454 -364 0
-539 -455 -365 0
-540 -456 -366 0
-538 -457 -367 0
-539 -458 -368 0
-540 -459 -369 0
-538 -460 -370 0
-539 -461 -371 0
-540 -462 -372 0
-538 -463 -373 0
-539 -464 -374 0
-540 -465 -375 0
-538 -466 -376 0
-539 -467 -377 0
-540 -468 -378 0
-538 -469 -379 0
-539 -470 -380 0
-540 -471 -381 0
-538 -472 -382 0
-539 -473 -383 0
-540 -474 -384 0
-538 -475 -385 0
-539 -476 -386 0
-540 -477 -387 0
-538 -478 -388 0
-539 -479 -389 0
-540 -480 -390 0
-538 -481 -391 0
-539 -482 -392 0
-540 -483 -393 0
-538 -484 -394 0
-539 -485 -395 0
-540 -486 -396 0
-538 -487 -397 0
-539 -488 -398 0
-540 -489 -399 0
-538 -490 -400 0
-539 -491 -401 0
-540 -492 -402 0
-538 -493 -403 0
-539 -494 -404 0
-540 -495 -405 0
-538 -496 -406 0
-539 -497 -407 0
-540 -498 -408 0
-538 -499 -409 0
-539 -500 -410 0
-540 -501 -411 0
-538 -502 -412 0
-539 -503 -413 0
-540 -504 -414 0
-538 -505 -415 0
-539 -506 -416 0
-540 -507 -417 0
-538 -508 -418 0
-539 -509 -419 0
-540 -510 -420 0
-538 -511 -421 0
-539 -512 -422 0
-540 -513 -423 0
-538 -514 -424 0
-539 -515 -425 0
-540 -516 -426 0
-538 -517 -427 0
-539 -518 -428 0
-540 -519 -429 0
-538 -520 -430 0
-539 -521 -431 0
-540 -522 -432 0
-538 -523 -433 0
-539 -524 -434 0
-540 -525 -435 0
-538 -526 -436 0
-539 -527 -437 0
-540 -528 -438 0
-538 -529 -439 0
-539 -530 -440 0
-540 -531 -441 0
-538 -532 -442 0
-539 -533 -443 0
-540 -534 -444 0
-538 -535 -445 0
-539 -536 -446 0
-540 -537 -447 0
-538 -448 0
-539 -449 0
-540 -450 0
-541 -538 -451 0
-542 -539 -452 0
-543 -540 -453 0
-544 -538 -454 0
-545 -539 -455 0
-546 -540 -456 0
-547 -538 -457 0
-548 -539 -458 0
-549 -540 -459 0
-550 -538 -460 0
-551 -539 -461 0
-552 -540 -462 0
-553 -538 -463 0
-554 -539 -464 0
-555 -540 -465 0
-556 -538 -466 0
-557 -539 -467 0
-558 -540 -468 0
-559 -538 -469 0
-560 -539 -470 0
-561 -540 -471 0
-562 -538 -472 0
-563 -539 -473 0
-564 -540 -474 0
-565 -538 -475 0
-566 -539 -476 0
-567 -540 -477 0
-568 -538 -478 0
-569 -539 -479 0
-570 -540 -480 0
-571 -538 -481 0
-572 -539 -482 0
-573 -540 -483 0
-574 -538 -484 0
-575 -539 -485 0
-576 -540 -486 0
-577 -538 -487 0
-578 -539 -488 0
-579 -540 -489 0
-580 -538 -490 0
-581 -539 -491 0
-582 -540 -492 0
-583 -538 -493 0
-584 -539 -494 0
-585 -540 -495 0
-586 -538 -496 0
-587 -539 -497 0
-588 -540 -498 0
-589 -538 -499 0
-590 -539 -500 0
-591 -540 -501 0
-592 -538 -502 0
-593 -539 -503 0
-594 -540 -504 0
-595 -538 -505 0
-596 -539 -506 0
-597 -540 -507 0
-598 -538 -508 0
-599 -539 -509 0
-600 -540 -510 0
-601 -538 -511 0
-602 -539 -512 0
-603 -540 -513 0
-604 -538 -514 0
-605 -539 -515 0
-606 -540 -516 0
-607 -538 -517 0
-608 -539 -518 0
-609 -540 -519 0
-610 -538 -520 0
-611 -539 -521 0
-612 -540 -522 0
-613 -538 -523 0
-614 -539 -524 0
-615 -540 -525 0
-616 -538 -526 0
-617 -539 -527 0
-618 -540 -528 0
-619 -538 -529 0
-620 -539 -530 0
-621 -540 -531 0
-622 -538 -532 0
-623 -539 -533 0
-624 -540 -534 0
-625 -538 -535 0
-626 -539 -536 0
-627 -540 -537 0
-628 -538 0
-629 -539 0
-630 -540 0
-631 -541 -538 0
-632 -542 -539 0
-633 -543 -540 0
-634 -544 -538 0
-635 -545 -539 0
-636 -546 -540 0
-637 -547 -538 0
-638 -548 -539 0
-639 -549 -540 0
-640 -550 -538 0
-641 -551 -539 0
-642 -552 -540 0
-643 -553 -538 0
-644 -554 -539 0
-645 -555 -540 0
-646 -556 -538 0
-647 -557 -539 0
-648 -558 -540 0
-556 -94 -1 0
-557 -95 -2 0
-558 -96 -3 0
-556 -97 -4 0
-557 -98 -5 0
-558 -99 -6 0
-556 -100 -7 0
-557 -101 -8 0
-558 -102 -9 0
-556 -103 -10 0
-557 -104 -11 0
-558 -105 -12 0
-556 -106 -13 0
-557 -107 -14 0
-558 -108 -15 0
-556 -109 -16 0
-557 -110 -17 0
-558 -111 -18 0
-556 -112 -19 0
-557 -113 -20 0
-558 -114 -21 0
-556 -115 -22 0
-557 -116 -23 0
-558 -117 -24 0
-556 -118 -25 0
-557 -119 -26 0
-558 -120 -27 0
-556 -121 -28 0
-557 -122 -29 0
-558 -123 -30 0
-556 -124 -31 0
-557 -125 -32 0
-558 -126 -33 0
-556 -127 -34 0
-557 -128 -35 0
-558 -129 -36 0
-556 -130 -37 0
-557 -131 -38 0
-558 -132 -39 0
-556 -133 -40 0
-557 -134 -41 0
-558 -135 -42 0
-556 -136 -43 0
-557 -137 -44 0
-558 -138 -45 0
-556 -139 -46 0
-557 -140 -47 0
-558 -141 -48 0
-556 -142 -49 0
-557 -143 -50 0
-558 -144 -51 0
-556 -145 -52 0
-557 -146 -53 0
-558 -147 -54 0
-556 -148 -55 0
-557 -149 -56 0
-558 -150 -57 0
-556 -151 -58 0
-557 -152 -59 0
-558 -153 -60 0
-556 -154 -61 0
-557 -155 -62 0
-558 -156 -63 0
-556 -157 -64 0
-557 -158 -65 0
-558 -159 -66 0
-556 -160 -67 0
-557 -161 -68 0
-558 -162 -69 0
-556 -163 -70 0
-557 -164 -71 0
-558 -165 -72 0
-556 -166 -73 0
-557 -167 -74 0
-558 -168 -75 0
-556 -169 -76 0
-557 -170 -77 0
-558 -171 -78 0
-556 -172 -79 0
-557 -173 -80 0
-558 -174 -81 0
-556 -175 -82 0
-557 -176 -83 0
-558 -177 -84 0
-556 -178 -85 0
-557 -179 -86 0
-558 -180 -87 0
-556 -181 -88 0
-557 -182 -89 0
-558 -183 -90 0
-556 -184 -91 0
-557 -185 -92 0
-558 -186 -93 0
-556 -187 -94 0
-557 -188 -95 0
-558 -189 -96 0
-556 -190 -97 0
-557 -191 -98 0
-558 -192 -99 0
-556 -193 -100 0
-557 -194 -101 0
-558 -195 -102 0
-556 -196 -103 0
-557 -197 -104 0
-558 -198 -105 0
-556 -199 -106 0
-557 -200 -107 0
-558 -201 -108 0
-556 -202 -109 0
-557 -203 -110 0
-558 -204 -111 0
-556 -205 -112 0
-557 -206 -113 0
-558 -207 -114 0
-556 -208 -115 0
-557 -209 -116 0
-558 -210 -117 0
-556 -211 -118 0
-557 -212 -119 0
-558 -213 -120 0
-556 -214 -121 0
-557 -215 -122 0
-558 -216 -123 0
-556 -217 -124 0
-557 -218 -125 0
-558 -219 -126 0
-556 -220 -127 0
-557 -221 -128 0
-558 -222 -129 0
-556 -223 -130 0
-557 -224 -131 0
-558 -225 -132 0
-556 -226 -133 0
-557 -227 -134 0
-558 -228 -135 0
-556 -229 -136 0
-557 -230 -137 0
-558 -231 -138 0
-556 -232 -139 0
-557 -233 -140 0
-558 -234 -141 0
-556 -235 -142 0
-557 -236 -143 0
-558 -237 -144 0
-556 -238 -145 0
-557 -239 -146 0
-558 -240 -147 0
-556 -241 -148 0
-557 -242 -149 0
-558 -243 -150 0
-556 -244 -151 0
-557 -245 -152 0
-558 -246 -153 0
-556 -247 -154 0
-557 -248 -155 0
-558 -249 -156 0
-556 -250 -157 0
-557 -251 -158 0
-558 -252 -159 0
-556 -253 -160 0
-557 -254 -161 0
-558 -255 -162 0
-556 -256 -163 0
-557 -257 -164 0
-558 -258 -165 0
-556 -259 -166 0
-557 -260 -167 0
-558 -261 -168 0
-556 -262 -169 0
-557 -263 -170 0
-558 -264 -171 0
-556 -265 -172 0
-557 -266 -173 0
-558 -267 -174 0
-556 -268 -175 0
-557 -269 -176 0
-558 -270 -177 0
-556 -271 -178 0
-557 -272 -179 0
-558 -273 -180 0
-556 -274 -181 0
-557 -275 -182 0
-558 -276 -183 0
-556 -277 -184 0
-557 -278 -185 0
-558 -279 -186 0
-556 -280 -187 0
-557 -281 -188 0
-558 -282 -189 0
-556 -283 -190 0
-557 -284 -191 0
-558 -285 -192 0
-556 -286 -193 0
-557 -287 -194 0
-558 -288 -195 0
-556 -289 -196 0
-557 -290 -197 0
-558 -291 -198 0
-556 -292 -199 0
-557 -293 -200 0
-558 -294 -201 0
-556 -295 -202 0
-557 -296 -203 0
-558 -297 -204 0
-556 -298 -205 0
-557 -299 -206 0
-558 -300 -207 0
-556 -301 -208 0
-557 -302 -209 0
-558 -303 -210 0
-556 -304 -211 0
-557 -305 -212 0
-558 -306 -213 0
-556 -307 -214 0
-557 -308 -215 0
-558 -309 -216 0
-556 -310 -217 0
-557 -311 -218 0
-558 -312 -219 0
-556 -313 -220 0
-557 -314 -221 0
-558 -315 -222 0
-556 -316 -223 0
-557 -317 -224 0
-558 -318 -225 0
-556 -319 -226 0
-557 -320 -227 0
-558 -321 -228 0
-556 -322 -229 0
-557 -323 -230 0
-558 -324 -231 0
-556 -325 -232 0
-557 -326 -233 0
-558 -327 -234 0
-556 -328 -235 0
-557 -329 -236 0
-558 -330 -237 0
-556 -331 -238 0
-557 -332 -239 0
-558 -333 -240 0
-556 -334 -241 0
-557 -335 -242 0
-558 -336 -243 0
-556 -337 -244 0
-557 -338 -245 0
-558 -339 -246 0
-556 -340 -247 0
-557 -341 -248 0
-558 -342 -249 0
-556 -343 -250 0
-557 -344 -251 0
-558 -345 -252 0
-556 -346 -253 0
-557 -347 -254 0
-558 -348 -255 0
-556 -349 -256 0
-557 -350 -257 0
-558 -351 -258 0
-556 -352 -259 0
-557 -353 -260 0
-558 -354 -261 0
-556 -355 -262 0
-557 -356 -263 0
-558 -357 -264 0
-556 -358 -265 0
-557 -359 -266 0
-558 -360 -267 0
-556 -361 -268 0
-557 -362 -269 0
-558 -363 -270 0
-556 -364 -271 0
-557 -365 -272 0
-558 -366 -273 0
-556 -367 -274 0
-557 -368 -275 0
-558 -369 -276 0
-556 -370 -277 0
-557 -371 -278 0
-558 -372 -279 0
-556 -373 -280 0
-557 -374 -281 0
-558 -375 -282 0
-556 -376 -283 0
-557 -377 -284 0
-558 -378 -285 0
-556 -379 -286 0
-557 -380 -287 0
-558 -381 -288 0
-556 -382 -289 0
-557 -383 -290 0
-558 -384 -291 0
-556 -385 -292 0
-557 -386 -293 0
-558 -387 -294 0
-556 -388 -295 0
-557 -389 -296 0
-558 -390 -297 0
-556 -391 -298 0
-557 -392 -299 0
-558 -393 -300 0
-556 -394 -301 0
-557 -395 -302 0
-558 -396 -303 0
-556 -397 -304 0
-557 -398 -305 0
-558 -399 -306 0
-556 -400 -307 0
-557 -401 -308 0
-558 -402 -309 0
-556 -403 -310 0
-557 -404 -311 0
-558 -405 -312 0
-556 -406 -313 0
-557 -407 -314 0
-558 -408 -315 0
-556 -409 -316 0
-557 -410 -317 0
-558 -411 -318 0
-556 -412 -319 0
-557 -413 -320 0
-558 -414 -321 0
-556 -415 -322 0
-557 -416 -323 0
-558 -417 -324 0
-556 -418 -325 0
-557 -419 -326 0
-558 -420 -327 0
-556 -421 -328 0
-557 -422 -329 0
-558 -423 -330 0
-556 -424 -331 0
-557 -425 -332 0
-558 -426 -333 0
-556 -427 -334 0
-557 -428 -335 0
-558 -429 -336 0
-556 -430 -337 0
-557 -431 -338 0
-558 -432 -339 0
-556 -433 -340 0
-557 -434 -341 0
-558 -435 -342 0
-556 -436 -343 0
-557 -437 -344 0
-558 -438 -345 0
-556 -439 -346 0
-557 -440 -347 0
-558 -441 -348 0
-556 -442 -349 0
-557 -443 -350 0
-558 -444 -351 0
-556 -445 -352 0
-557 -446 -353 0
-558 -447 -354 0
-556 -448 -355 0
-557 -449 -356 0
-558 -450 -357 0
-556 -451 -358 0
-557 -452 -359 0
-558 -453 -360 0
-556 -454 -361 0
-557 -455 -362 0
-558 -456 -363 0
-556 -457 -364 0
-557 -458 -365 0
-558 -459 -366 0
-556 -460 -367 0
-557 -461 -368 0
-558 -462 -369 0
-556 -463 -370 0
-557 -464 -371 0
-558 -465 -372 0
-556 -466 -373 0
-557 -467 -374 0
-558 -468 -375 0
-556 -469 -376 0
-557 -470 -377 0
-558 -471 -378 0
-556 -472 -379 0
-557 -473 -380 0
-558 -474 -381 0
-556 -475 -382 0
-557 -476 -383 0
-558 -477 -384 0
-556 -478 -385 0
-557 -479 -386 0
-558 -480 -387 0
-556 -481 -388 0
-557 -482 -389 0
-558 -483 -390 0
-556 -484 -391 0
-557 -485 -392 0
-558 -486 -393 0
-556 -487 -394 0
-557 -488 -395 0
-558 -489 -396 0
-556 -490 -397 0
-557 -491 -398 0
-558 -492 -399 0
-556 -493 -400 0
-557 -494 -401 0
-558 -495 -402 0
-556 -496 -403 0
-557 -497 -404 0
-558 -498 -405 0
-556 -499 -406 0
-557 -500 -407 0
-558 -501 -408 0
-556 -502 -409 0
-557 -503 -410 0
-558 -504 -411 0
-556 -505 -412 0
-557 -506 -413 0
-558 -507 -414 0
-556 -508 -415 0
-557 -509 -416 0
-558 -510 -417 0
-556 -511 -418 0
-557 -512 -419 0
-558 -513 -420 0
-556 -514 -421 0
-557 -515 -422 0
-558 -516 -423 0
-556 -517 -424 0
-557 -518 -425 0
-558 -519 -426 0
-556 -520 -427 0
-557 -521 -428 0
-558 -522 -429 0
-556 -523 -430 0
-557 -524 -431 0
-558 -525 -432 0
-556 -526 -433 0
-557 -527 -434 0
-558 -528 -435 0
-556 -529 -436 0
-557 -530 -437 0
-558 -531 -438 0
-556 -532 -439 0
-557 -533 -440 0
-558 -534 -441 0
-556 -535 -442 0
-557 -536 -443 0
-558 -537 -444 0
-556 -538 -445 0
-557 -539 -446 0
-558 -540 -447 0
-556 -541 -448 0
-557 -542 -449 0
-558 -543 -450 0
-556 -544 -451 0
-557 -545 -452 0
-558 -546 -453 0
-556 -547 -454 0
-557 -548 -455 0
-558 -549 -456 0
-556 -550 -457 0
-557 -551 -458 0
-558 -552 -459 0
-556 -553 -460 0
-557 -554 -461 0
-558 -555 -462 0
-556 -463 0
-557 -464 0
-558 -465 0
-559 -556 -466 0
-560 -557 -467 0
-561 -558 -468 0
-562 -556 -469 0
-563 -557 -470 0
-564 -558 -471 0
-565 -556 -472 0
-566 -557 -473 0
-567 -558 -474 0
-568 -556 -475 0
-569 -557 -476 0
-570 -558 -477 0
-571 -556 -478 0
-572 -557 -479 0
-573 -558 -480 0
-574 -556 -481 0
-575 -557 -482 0
-576 -558 -483 0
-577 -556 -484 0
-578 -557 -485 0
-579 -558 -486 0
-580 -556 -487 0
-581 -557 -488 0
-582 -558 -489 0
-583 -556 -490 0
-584 -557 -491 0
-585 -558 -492 0
-586 -556 -493 0
-587 -557 -494 0
-588 -558 -495 0
-589 -556 -496 0
-590 -557 -497 0
-591 -558 -498 0
-592 -556 -499 0
-593 -557 -500 0
-594 -558 -501 0
-595 -556 -502 0
-596 -557 -503 0
-597 -558 -504 0
-598 -556 -505 0
-599 -557 -506 0
-600 -558 -507 0
-601 -556 -508 0
-602 -557 -509 0
-603 -558 -510 0
-604 -556 -511 0
-605 -557 -512 0
-606 -558 -513 0
-607 -556 -514 0
-608 -557 -515 0
-609 -558 -516 0
-610 -556 -517 0
-611 -557 -518 0
-612 -558 -519 0
-613 -556 -520 0
-614 -557 -521 0
-615 -558 -522 0
-616 -556 -523 0
-617 -557 -524 0
-618 -558 -525 0
-619 -556 -526 0
-620 -557 -527 0
-621 -558 -528 0
-622 -556 -529 0
-623 -557 -530 0
-624 -558 -531 0
-625 -556 -532 0
-626 -557 -533 0
-627 -558 -534 0
-628 -556 -535 0
-629 -557 -536 0
-630 -558 -537 0
-631 -556 -538 0
-632 -557 -539 0
-633 -558 -540 0
-634 -556 -541 0
-635 -557 -542 0
-636 -558 -543 0
-637 -556 -544 0
-638 -557 -545 0
-639 -558 -546 0
-640 -556 -547 0
-641 -557 -548 0
-642 -558 -549 0
-643 -556 -550 0
-644 -557 -551 0
-645 -558 -552 0
-646 -556 -553 0
-647 -557 -554 0
-648 -558 -555 0
-574 -97 -1 0
-575 -98 -2 0
-576 -99 -3 0
-574 -100 -4 0
-575 -101 -5 0
-576 -102 -6 0
-574 -103 -7 0
-575 -104 -8 0
-576 -105 -9 0
-574 -106 -10 0
-575 -107 -11 0
-576 -108 -12 0
-574 -109 -13 0
-575 -110 -14 0
-576 -111 -15 0
-574 -112 -16 0
-575 -113 -17 0
-576 -114 -18 0
-574 -115 -19 0
-575 -116 -20 0
-576 -117 -21 0
-574 -118 -22 0
-575 -119 -23 0
-576 -120 -24 0
-574 -121 -25 0
-575 -122 -26 0
-576 -123 -27 0
-574 -124 -28 0
-575 -125 -29 0
-576 -126 -30 0
-574 -127 -31 0
-575 -128 -32 0
-576 -129 -33 0
-574 -130 -34 0
-575 -131 -35 0
-576 -132 -36 0
-574 -133 -37 0
-575 -134 -38 0
-576 -135 -39 0
-574 -136 -40 0
-575 -137 -41 0
-576 -138 -42 0
-574 -139 -43 0
-575 -140 -44 0
-576 -141 -45 0
-574 -142 -46 0
-575 -143 -47 0
-576 -144 -48 0
-574 -145 -49 0
-575 -146 -50 0
-576 -147 -51 0
-574 -148 -52 0
-575 -149 -53 0
-576 -150 -54 0
-574 -151 -55 0
-575 -152 -56 0
-576 -153 -57 0
-574 -154 -58 0
-575 -155 -59 0
-576 -156 -60 0
-574 -157 -61 0
-575 -158 -62 0
-576 -159 -63 0
-574 -160 -64 0
-575 -161 -65 0
-576 -162 -66 0
-574 -163 -67 0
-575 -164 -68 0
-576 -165 -69 0
-574 -166 -70 0
-575 -167 -71 0
-576 -168 -72 0
-574 -169 -73 0
-575 -170 -74 0
-576 -171 -75 0
-574 -172 -76 0
-575 -173 -77 0
-576 -174 -78 0
-574 -175 -79 0
-575 -176 -80 0
-576 -177 -81 0
-574 -178 -82 0
-575 -179 -83 0
-576 -180 -84 0
-574 -181 -85 0
-575 -182 -86 0
-576 -183 -87 0
-574 -184 -88 0
-575 -185 -89 0
-576 -186 -90 0
-574 -187 -91 0
-575 -188 -92 0
-576 -189 -93 0
-574 -190 -94 0
-575 -191 -95 0
-576 -192 -96 0
-574 -193 -97 0
-575 -194 -98 0
-576 -195 -99 0
-574 -196 -100 0
-575 -197 -101 0
-576 -198 -102 0
-574 -199 -103 0
-575 -200 -104 0
-576 -201 -105 0
-574 -202 -106 0
-575 -203 -107 0
-576 -204 -108 0
-574 -205 -109 0
-575 -206 -110 0
-576 -207 -111 0
-574 -208 -112 0
-575 -209 -113 0
-576 -210 -114 0
-574 -211 -115 0
-575 -212 -116 0
-576 -213 -117 0
-574 -214 -118 0
-575 -215 -119 0
-576 -216 -120 0
-574 -217 -121 0
-575 -218 -122 0
-576 -219 -123 0
-574 -220 -124 0
-575 -221 -125 0
-576 -222 -126 0
-574 -223 -127 0
-575 -224 -128 0
-576 -225 -129 0
-574 -226 -130 0
-575 -227 -131 0
-576 -228 -132 0
-574 -229 -133 0
-575 -230 -134 0
-576 -231 -135 0
-574 -232 -136 0
-575 -233 -137 0
-576 -234 -138 0
-574 -235 -139 0
-575 -236 -140 0
-576 -237 -141 0
-574 -238 -142 0
-575 -239 -143 0
-576 -240 -144 0
-574 -241 -145 0
-575 -242 -146 0
-576 -243 -147 0
-574 -244 -148 0
-575 -245 -149 0
-576 -246 -150 0
-574 -247 -151 0
-575 -248 -152 0
-576 -249 -153 0
-574 -250 -154 0
-575 -251 -155 0
-576 -252 -156 0
-574 -253 -157 0
-575 -254 -158 0
-576 -255 -159 0
-574 -256 -160 0
-575 -257 -161 0
-576 -258 -162 0
-574 -259 -163 0
-575 -260 -164 0
-576 -261 -165 0
-574 -262 -166 0
-575 -263 -167 0
-576 -264 -168 0
-574 -265 -169 0
-575 -266 -170 0
-576 -267 -171 0
-574 -268 -172 0
-575 -269 -173 0
-576 -270 -174 0
-574 -271 -175 0
-575 -272 -176 0
-576 -273 -177 0
-574 -274 -178 0
-575 -275 -179 0
-576 -276 -180 0
-574 -277 -181 0
-575 -278 -182 0
-576 -279 -183 0
-574 -280 -184 0
-575 -281 -185 0
-576 -282 -186 0
-574 -283 -187 0
-575 -284 -188 0
-576 -285 -189 0
-574 -286 -190 0
-575 -287 -191 0
-576 -288 -192 0
-574 -289 -193 0
-575 -290 -194 0
-576 -291 -195 0
-574 -292 -196 0
-575 -293 -197 0
-576 -294 -198 0
-574 -295 -199 0
-575 -296 -200 0
-576 -297 -201 0
-574 -298 -202 0
-575 -299 -203 0
-576 -300 -204 0
-574 -301 -205 0
-575 -302 -206 0
-576 -303 -207 0
-574 -304 -208 0
-575 -305 -209 0
-576 -306 -210 0
-574 -307 -211 0
-575 -308 -212 0
-576 -309 -213 0
-574 -310 -214 0
-575 -311 -215 0
-576 -312 -216 0
-574 -313 -217 0
-575 -314 -218 0
-576 -315 -219 0
-574 -316 -220 0
-575 -317 -221 0
-576 -318 -222 0
-574 -319 -223 0
-575 -320 -224 0
-576 -321 -225 0
-574 -322 -226 0
-575 -323 -227 0
-576 -324 -228 0
-574 -325 -229 0
-575 -326 -230 0
-576 -327 -231 0
-574 -328 -232 0
-575 -329 -233 0
-576 -330 -234 0
-574 -331 -235 0
-575 -332 -236 0
-576 -333 -237 0
-574 -334 -238 0
-575 -335 -239 0
-576 -336 -240 0
-574 -337 -241 0
-575 -338 -242 0
-576 -339 -243 0
-574 -340 -244 0
-575 -341 -245 0
-576 -342 -246 0
-574 -343 -247 0
-575 -344 -248 0
-576 -345 -249 0
-574 -346 -250 0
-575 -347 -251 0
-576 -348 -252 0
-574 -349 -253 0
-575 -350 -254 0
-576 -351 -255 0
-574 -352 -256 0
-575 -353 -257 0
-576 -354 -258 0
-574 -355 -259 0
-575 -356 -260 0
-576 -357 -261 0
-574 -358 -262 0
-575 -359 -263 0
-576 -360 -264 0
-574 -361 -265 0
-575 -362 -266 0
-576 -363 -267 0
-574 -364 -268 0
-575 -365 -269 0
-576 -366 -270 0
-574 -367 -271 0
-575 -368 -272 0
-576 -369 -273 0
-574 -370 -274 0
-575 -371 -275 0
-576 -372 -276 0
-574 -373 -277 0
-575 -374 -278 0
-576 -375 -279 0
-574 -376 -280 0
-575 -377 -281 0
-576 -378 -282 0
-574 -379 -283 0
-575 -380 -284 0
-576 -381 -285 0
-574 -382 -286 0
-575 -383 -287 0
-576 -384 -288 0
-574 -385 -289 0
-575 -386 -290 0
-576 -387 -291 0
-574 -388 -292 0
-575 -389 -293 0
-576 -390 -294 0
-574 -391 -295 0
-575 -392 -296 0
-576 -393 -297 0
-574 -394 -298 0
-575 -395 -299 0
-576 -396 -300 0
-574 -397 -301 0
-575 -398 -302 0
-576 -399 -303 0
-574 -400 -304 0
-575 -401 -305 0
-576 -402 -306 0
-574 -403 -307 0
-575 -404 -308 0
-576 -405 -309 0
-574 -406 -310 0
-575 -407 -311 0
-576 -408 -312 0
-574 -409 -313 0
-575 -410 -314 0
-576 -411 -315 0
-574 -412 -316 0
-575 -413 -317 0
-576 -414 -318 0
-574 -415 -319 0
-575 -416 -320 0
-576 -417 -321 0
-574 -418 -322 0
-575 -419 -323 0
-576 -420 -324 0
-574 -421 -325 0
-575 -422 -326 0
-576 -423 -327 0
-574 -424 -328 0
-575 -425 -329 0
-576 -426 -330 0
-574 -427 -331 0
-575 -428 -332 0
-576 -429 -333 0
-574 -430 -334 0
-575 -431 -335 0
-576 -432 -336 0
-574 -433 -337 0
-575 -434 -338 0
-576 -435 -339 0
-574 -436 -340 0
-575 -437 -341 0
-576 -438 -342 0
-574 -439 -343 0
-575 -440 -344 0
-576 -441 -345 0
-574 -442 -346 0
-575 -443 -347 0
-576 -444 -348 0
-574 -445 -349 0
-575 -446 -350 0
-576 -447 -351 0
-574 -448 -352 0
-575 -449 -353 0
-576 -450 -354 0
-574 -451 -355 0
-575 -452 -356 0
-576 -453 -357 0
-574 -454 -358 0
-575 -455 -359 0
-576 -456 -360 0
-574 -457 -361 0
-575 -458 -362 0
-576 -459 -363 0
-574 -460 -364 0
-575 -461 -365 0
-576 -462 -366 0
-574 -463 -367 0
-575 -464 -368 0
-576 -465 -369 0
-574 -466 -370 0
-575 -467 -371 0
-576 -468 -372 0
-574 -469 -373 0
-575 -470 -374 0
-576 -471 -375 0
-574 -472 -376 0
-575 -473 -377 0
-576 -474 -378 0
-574 -475 -379 0
-575 -476 -380 0
-576 -477 -381 0
-574 -478 -382 0
-575 -479 -383 0
-576 -480 -384 0
-574 -481 -385 0
-575 -482 -386 0
-576 -483 -387 0
-574 -484 -388 0
-575 -485 -389 0
-576 -486 -390 0
-574 -487 -391 0
-575 -488 -392 0
-576 -489 -393 0
-574 -490 -394 0
-575 -491 -395 0
-576 -492 -396 0
-574 -493 -397 0
-575 -494 -398 0
-576 -495 -399 0
-574 -496 -400 0
-575 -497 -401 0
-576 -498 -402 0
-574 -499 -403 0
-575 -500 -404 0
-576 -501 -405 0
-574 -502 -406 0
-575 -503 -407 0
-576 -504 -408 0
-574 -505 -409 0
-575 -506 -410 0
-576 -507 -411 0
-574 -508 -412 0
-575 -509 -413 0
-576 -510 -414 0
-574 -511 -415 0
-575 -512 -416 0
-576 -513 -417 0
-574 -514 -418 0
-575 -515 -419 0
-576 -516 -420 0
-574 -517 -421 0
-575 -518 -422 0
-576 -519 -423 0
-574 -520 -424 0
-575 -521 -425 0
-576 -522 -426 0
-574 -523 -427 0
-575 -524 -428 0
-576 -525 -429 0
-574 -526 -430 0
-575 -527 -431 0
-576 -528 -432 0
-574 -529 -433 0
-575 -530 -434 0
-576 -531 -435 0
-574 -532 -436 0
-575 -533 -437 0
-576 -534 -438 0
-574 -535 -439 0
-575 -536 -440 0
-576 -537 -441 0
-574 -538 -442 0
-575 -539 -443 0
-576 -540 -444 0
-574 -541 -445 0
-575 -542 -446 0
-576 -543 -447 0
-574 -544 -448 0
-575 -545 -449 0
-576 -546 -450 0
-574 -547 -451 0
-575 -548 -452 0
-576 -549 -453 0
-574 -550 -454 0
-575 -551 -455 0
-576 -552 -456 0
-574 -553 -457 0
-575 -554 -458 0
-576 -555 -459 0
-574 -556 -460 0
-575 -557 -461 0
-576 -558 -462 0
-574 -559 -463 0
-575 -560 -464 0
-576 -561 -465 0
-574 -562 -466 0
-575 -563 -467 0
-576 -564 -468 0
-574 -565 -469 0
-575 -566 -470 0
-576 -567 -471 0
-574 -568 -472 0
-575 -569 -473 0
-576 -570 -474 0
-574 -571 -475 0
-575 -572 -476 0
-576 -573 -477 0
-574 -478 0
-575 -479 0
-576 -480 0
-577 -574 -481 0
-578 -575 -482 0
-579 -576 -483 0
-580 -574 -484 0
-581 -575 -485 0
-582 -576 -486 0
-583 -574 -487 0
-584 -575 -488 0
-585 -576 -489 0
-586 -574 -490 0
-587 -575 -491 0
-588 -576 -492 0
-589 -574 -493 0
-590 -575 -494 0
-591 -576 -495 0
-592 -574 -496 0
-593 -575 -497 0
-594 -576 -498 0
-595 -574 -499 0
-596 -575 -500 0
-597 -576 -501 0
-598 -574 -502 0
-599 -575 -503 0
-600 -576 -504 0
-601 -574 -505 0
-602 -575 -506 0
-603 -576 -507 0
-604 -574 -508 0
-605 -575 -509 0
-606 -576 -510 0
-607 -574 -511 0
-608 -575 -512 0
-609 -576 -513 0
-610 -574 -514 0
-611 -575 -515 0
-612 -576 -516 0
-613 -574 -517 0
-614 -575 -518 0
-615 -576 -519 0
-616 -574 -520 0
-617 -575 -521 0
-618 -576 -522 0
-619 -574 -523 0
-620 -575 -524 0
-621 -576 -525 0
-622 -574 -526 0
-623 -575 -527 0
-624 -576 -528 0
-625 -574 -529 0
-626 -575 -530 0
-627 -576 -531 0
-628 -574 -532 0
-629 -575 -533 0
-630 -576 -534 0
-631 -574 -535 0
-632 -575 -536 0
-633 -576 -537 0
-634 -574 -538 0
-635 -575 -539 0
-636 -576 -540 0
-637 -574 -541 0
-638 -575 -542 0
-639 -576 -543 0
-640 -574 -544 0
-641 -575 -545 0
-642 -576 -546 0
-643 -574 -547 0
-644 -575 -548 0
-645 -576 -549 0
-646 -574 -550 0
-647 -575 -551 0
-648 -576 -552 0
-592 -100 -1 0
-593 -101 -2 0
-594 -102 -3 0
-592 -103 -4 0
-593 -104 -5 0
-594 -105 -6 0
-592 -106 -7 0
-593 -107 -8 0
-594 -108 -9 0
-592 -109 -10 0
-593 -110 -11 0
-594 -111 -12 0
-592 -112 -13 0
-593 -113 -14 0
-594 -114 -15 0
-592 -115 -16 0
-593 -116 -17 0
-594 -117 -18 0
-592 -118 -19 0
-593 -119 -20 0
-594 -120 -21 0
-592 -121 -22 0
-593 -122 -23 0
-594 -123 -24 0
-592 -124 -25 0
-593 -125 -26 0
-594 -126 -27 0
-592 -127 -28 0
-593 -128 -29 0
-594 -129 -30 0
-592 -130 -31 0
-593 -131 -32 0
-594 -132 -33 0
-592 -133 -34 0
-593 -134 -35 0
-594 -135 -36 0
-592 -136 -37 0
-593 -137 -38 0
-594 -138 -39 0
-592 -139 -40 0
-593 -140 -41 0
-594 -141 -42 0
-592 -142 -43 0
-593 -143 -44 0
-594 -144 -45 0
-592 -145 -46 0
-593 -146 -47 0
-594 -147 -48 0
-592 -148 -49 0
-593 -149 -50 0
-594 -150 -51 0
-592 -151 -52 0
-593 -152 -53 0
-594 -153 -54 0
-592 -154 -55 0
-593 -155 -56 0
-594 -156 -57 0
-592 -157 -58 0
-593 -158 -59 0
-594 -159 -60 0
-592 -160 -61 0
-593 -161 -62 0
-594 -162 -63 0
-592 -163 -64 0
-593 -164 -65 0
-594 -165 -66 0
-592 -166 -67 0
-593 -167 -68 0
-594 -168 -69 0
-592 -169 -70 0
-593 -170 -71 0
-594 -171 -72 0
-592 -172 -73 0
-593 -173 -74 0
-594 -174 -75 0
-592 -175 -76 0
-593 -176 -77 0
-594 -177 -78 0
-592 -178 -79 0
-593 -179 -80 0
-594 -180 -81 0
-592 -181 -82 0
-593 -182 -83 0
-594 -183 -84 0
-592 -184 -85 0
-593 -185 -86 0
-594 -186 -87 0
-592 -187 -88 0
-593 -188 -89 0
-594 -189 -90 0
-592 -190 -91 0
-593 -191 -92 0
-594 -192 -93 0
-592 -193 -94 0
-593 -194 -95 0
-594 -195 -96 0
-592 -196 -97 0
-593 -197 -98 0
-594 -198 -99 0
-592 -199 -100 0
-593 -200 -101 0
-594 -201 -102 0
-592 -202 -103 0
-593 -203 -104 0
-594 -204 -105 0
-592 -205 -106 0
-593 -206 -107 0
-594 -207 -108 0
-592 -208 -109 0
-593 -209 -110 0
-594 -210 -111 0
-592 -211 -112 0
-593 -212 -113 0
-594 -213 -114 0
-592 -214 -115 0
-593 -215 -116 0
-594 -216 -117 0
-592 -217 -118 0
-593 -218 -119 0
-594 -219 -120 0
-592 -220 -121 0
-593 -221 -122 0
-594 -222 -123 0
-592 -223 -124 0
-593 -224 -125 0
-594 -225 -126 0
-592 -226 -127 0
-593 -227 -128 0
-594 -228 -129 0
-592 -229 -130 0
-593 -230 -131 0
-594 -231 -132 0
-592 -232 -133 0
-593 -233 -134 0
-594 -234 -135 0
-592 -235 -136 0
-593 -236 -137 0
-594 -237 -138 0
-592 -238 -139 0
-593 -239 -140 0
-594 -240 -141 0
-592 -241 -142 0
-593 -242 -143 0
-594 -243 -144 0
-592 -244 -145 0
-593 -245 -146 0
-594 -246 -147 0
-592 -247 -148 0
-593 -248 -149 0
-594 -249 -150 0
-592 -250 -151 0
-593 -251 -152 0
-594 -252 -153 0
-592 -253 -154 0
-593 -254 -155 0
-594 -255 -156 0
-592 -256 -157 0
-593 -257 -158 0
-594 -258 -159 0
-592 -259 -160 0
-593 -260 -161 0
-594 -261 -162 0
-592 -262 -163 0
-593 -263 -164 0
-594 -264 -165 0
-592 -265 -166 0
-593 -266 -167 0
-594 -267 -168 0
-592 -268 -169 0
-593 -269 -170 0
-594 -270 -171 0
-592 -271 -172 0
-593 -272 -173 0
-594 -273 -174 0
-592 -274 -175 0
-593 -275 -176 0
-594 -276 -177 0
-592 -277 -178 0
-593 -278 -179 0
-594 -279 -180 0
-592 -280 -181 0
-593 -281 -182 0
-594 -282 -183 0
-592 -283 -184 0
-593 -284 -185 0
-594 -285 -186 0
-592 -286 -187 0
-593 -287 -188 0
-594 -288 -189 0
-592 -289 -190 0
-593 -290 -191 0
-594 -291 -192 0
-592 -292 -193 0
-593 -293 -194 0
-594 -294 -195 0
-592 -295 -196 0
-593 -296 -197 0
-594 -297 -198 0
-592 -298 -199 0
-593 -299 -200 0
-594 -300 -201 0
-592 -301 -202 0
-593 -302 -203 0
-594 -303 -204 0
-592 -304 -205 0
-593 -305 -206 0
-594 -306 -207 0
-592 -307 -208 0
-593 -308 -209 0
-594 -309 -210 0
-592 -310 -211 0
-593 -311 -212 0
-594 -312 -213 0
-592 -313 -214 0
-593 -314 -215 0
-594 -315 -216 0
-592 -316 -217 0
-593 -317 -218 0
-594 -318 -219 0
-592 -319 -220 0
-593 -320 -221 0
-594 -321 -222 0
-592 -322 -223 0
-593 -323 -224 0
-594 -324 -225 0
-592 -325 -226 0
-593 -326 -227 0
-594 -327 -228 0
-592 -328 -229 0
-593 -329 -230 0
-594 -330 -231 0
-592 -331 -232 0
-593 -332 -233 0
-594 -333 -234 0
-592 -334 -235 0
-593 -335 -236 0
-594 -336 -237 0
-592 -337 -238 0
-593 -338 -239 0
-594 -339 -240 0
-592 -340 -241 0
-593 -341 -242 0
-594 -342 -243 0
-592 -343 -244 0
-593 -344 -245 0
-594 -345 -246 0
-592 -346 -247 0
-593 -347 -248 0
-594 -348 -249 0
-592 -349 -250 0
-593 -350 -251 0
-594 -351 -252 0
-592 -352 -253 0
-593 -353 -254 0
-594 -354 -255 0
-592 -355 -256 0
-593 -356 -257 0
-594 -357 -258 0
-592 -358 -259 0
-593 -359 -260 0
-594 -360 -261 0
-592 -361 -262 0
-593 -362 -263 0
-594 -363 -264 0
-592 -364 -265 0
-593 -365 -266 0
-594 -366 -267 0
-592 -367 -268 0
-593 -368 -269 0
-594 -369 -270 0
-592 -370 -271 0
-593 -371 -272 0
-594 -372 -273 0
-592 -373 -274 0
-593 -374 -275 0
-594 -375 -276 0
-592 -376 -277 0
-593 -377 -278 0
-594 -378 -279 0
-592 -379 -280 0
-593 -380 -281 0
-594 -381 -282 0
-592 -382 -283 0
-593 -383 -284 0
-594 -384 -285 0
-592 -385 -286 0
-593 -386 -287 0
-594 -387 -288 0
-592 -388 -289 0
-593 -389 -290 0
-594 -390 -291 0
-592 -391 -292 0
-593 -392 -293 0
-594 -393 -294 0
-592 -394 -295 0
-593 -395 -296 0
-594 -396 -297 0
-592 -397 -298 0
-593 -398 -299 0
-594 -399 -300 0
-592 -400 -301 0
-593 -401 -302 0
-594 -402 -303 0
-592 -403 -304 0
-593 -404 -305 0
-594 -405 -306 0
-592 -406 -307 0
-593 -407 -308 0
-594 -408 -309 0
-592 -409 -310 0
-593 -410 -311 0
-594 -411 -312 0
-592 -412 -313 0
-593 -413 -314 0
-594 -414 -315 0
-592 -415 -316 0
-593 -416 -317 0
-594 -417 -318 0
-592 -418 -319 0
-593 -419 -320 0
-594 -420 -321 0
-592 -421 -322 0
-593 -422 -323 0
-594 -423 -324 0
-592 -424 -325 0
-593 -425 -326 0
-594 -426 -327 0
-592 -427 -328 0
-593 -428 -329 0
-594 -429 -330 0
-592 -430 -331 0
-593 -431 -332 0
-594 -432 -333 0
-592 -433 -334 0
-593 -434 -335 0
-594 -435 -336 0
-592 -436 -337 0
-593 -437 -338 0
-594 -438 -339 0
-592 -439 -340 0
-593 -440 -341 0
-594 -441 -342 0
-592 -442 -343 0
-593 -443 -344 0
-594 -444 -345 0
-592 -445 -346 0
-593 -446 -347 0
-594 -447 -348 0
-592 -448 -349 0
-593 -449 -350 0
-594 -450 -351 0
-592 -451 -352 0
-593 -452 -353 0
-594 -453 -354 0
-592 -454 -355 0
-593 -455 -356 0
-594 -456 -357 0
-592 -457 -358 0
-593 -458 -359 0
-594 -459 -360 0
-592 -460 -361 0
-593 -461 -362 0
-594 -462 -363 0
-592 -463 -364 0
-593 -464 -365 0
-594 -465 -366 0
-592 -466 -367 0
-593 -467 -368 0
-594 -468 -369 0
-592 -469 -370 0
-593 -470 -371 0
-594 -471 -372 0
-592 -472 -373 0
-593 -473 -374 0
-594 -474 -375 0
-592 -475 -376 0
-593 -476 -377 0
-594 -477 -378 0
-592 -478 -379 0
-593 -479 -380 0
-594 -480 -381 0
-592 -481 -382 0
-593 -482 -383 0
-594 -483 -384 0
-592 -484 -385 0
-593 -485 -386 0
-594 -486 -387 0
-592 -487 -388 0
-593 -488 -389 0
-594 -489 -390 0
-592 -490 -391 0
-593 -491 -392 0
-594 -492 -393 0
-592 -493 -394 0
-593 -494 -395 0
-594 -495 -396 0
-592 -496 -397 0
-593 -497 -398 0
-594 -498 -399 0
-592 -499 -400 0
-593 -500 -401 0
-594 -501 -402 0
-592 -502 -403 0
-593 -503 -404 0
-594 -504 -405 0
-592 -505 -406 0
-593 -506 -407 0
-594 -507 -408 0
-592 -508 -409 0
-593 -509 -410 0
-594 -510 -411 0
-592 -511 -412 0
-593 -512 -413 0
-594 -513 -414 0
-592 -514 -415 0
-593 -515 -416 0
-594 -516 -417 0
-592 -517 -418 0
-593 -518 -419 0
-594 -519 -420 0
-592 -520 -421 0
-593 -521 -422 0
-594 -522 -423 0
-592 -523 -424 0
-593 -524 -425 0
-594 -525 -426 0
-592 -526 -427 0
-593 -527 -428 0
-594 -528 -429 0
-592 -529 -430 0
-593 -530 -431 0
-594 -531 -432 0
-592 -532 -433 0
-593 -533 -434 0
-594 -534 -435 0
-592 -535 -436 0
-593 -536 -437 0
-594 -537 -438 0
-592 -538 -439 0
-593 -539 -440 0
-594 -540 -441 0
-592 -541 -442 0
-593 -542 -443 0
-594 -543 -444 0
-592 -544 -445 0
-593 -545 -446 0
-594 -546 -447 0
-592 -547 -448 0
-593 -548 -449 0
-594 -549 -450 0
-592 -550 -451 0
-593 -551 -452 0
-594 -552 -453 0
-592 -553 -454 0
-593 -554 -455 0
-594 -555 -456 0
-592 -556 -457 0
-593 -557 -458 0
-594 -558 -459 0
-592 -559 -460 0
-593 -560 -461 0
-594 -561 -462 0
-592 -562 -463 0
-593 -563 -464 0
-594 -564 -465 0
-592 -565 -466 0
-593 -566 -467 0
-594 -567 -468 0
-592 -568 -469 0
-593 -569 -470 0
-594 -570 -471 0
-592 -571 -472 0
-593 -572 -473 0
-594 -573 -474 0
-592 -574 -475 0
-593 -575 -476 0
-594 -576 -477 0
-592 -577 -478 0
-593 -578 -479 0
-594 -579 -480 0
-592 -580 -481 0
-593 -581 -482 0
-594 -582 -483 0
-592 -583 -484 0
-593 -584 -485 0
-594 -585 -486 0
-592 -586 -487 0
-593 -587 -488 0
-594 -588 -489 0
-592 -589 -490 0
-593 -590 -491 0
-594 -591 -492 0
-592 -493 0
-593 -494 0
-594 -495 0
-595 -592 -496 0
-596 -593 -497 0
-597 -594 -498 0
-598 -592 -499 0
-599 -593 -500 0
-600 -594 -501 0
-601 -592 -502 0
-602 -593 -503 0
-603 -594 -504 0
-604 -592 -505 0
-605 -593 -506 0
-606 -594 -507 0
-607 -592 -508 0
-608 -593 -509 0
-609 -594 -510 0
-610 -592 -511 0
-611 -593 -512 0
-612 -594 -513 0
-613 -592 -514 0
-614 -593 -515 0
-615 -594 -516 0
-616 -592 -517 0
-617 -593 -518 0
-618 -594 -519 0
-619 -592 -520 0
-620 -593 -521 0
-621 -594 -522 0
-622 -592 -523 0
-623 -593 -524 0
-624 -594 -525 0
-625 -592 -526 0
-626 -593 -527 0
-627 -594 -528 0
-628 -592 -529 0
-629 -593 -530 0
-630 -594 -531 0
-631 -592 -532 0
-632 -593 -533 0
-633 -594 -534 0
-634 -592 -535 0
-635 -593 -536 0
-636 -594 -537 0
-637 -592 -538 0
-638 -593 -539 0
-639 -594 -540 0
-640 -592 -541 0
-641 -593 -542 0
-642 -594 -543 0
-643 -592 -544 0
-644 -593 -545 0
-645 -594 -546 0
-646 -592 -547 0
-647 -593 -548 0
-648 -594 -549 0
-610 -103 -1 0
-611 -104 -2 0
-612 -105 -3 0
-610 -106 -4 0
-611 -107 -5 0
-612 -108 -6 0
-610 -109 -7 0
-611 -110 -8 0
-612 -111 -9 0
-610 -112 -10 0
-611 -113 -11 0
-612 -114 -12 0
-610 -115 -13 0
-611 -116 -14 0
-612 -117 -15 0
-610 -118 -16 0
-611 -119 -17 0
-612 -120 -18 0
-610 -121 -19 0
-611 -122 -20 0
-612 -123 -21 0
-610 -124 -22 0
-611 -125 -23 0
-612 -126 -24 0
-610 -127 -25 0
-611 -128 -26 0
-612 -129 -27 0
-610 -130 -28 0
-611 -131 -29 0
-612 -132 -30 0
-610 -133 -31 0
-611 -134 -32 0
-612 -135 -33 0
-610 -136 -34 0
-611 -137 -35 0
-612 -138 -36 0
-610 -139 -37 0
-611 -140 -38 0
-612 -141 -39 0
-610 -142 -40 0
-611 -143 -41 0
-612 -144 -42 0
-610 -145 -43 0
-611 -146 -44 0
-612 -147 -45 0
-610 -148 -46 0
-611 -149 -47 0
-612 -150 -48 0
-610 -151 -49 0
-611 -152 -50 0
-612 -153 -51 0
-610 -154 -52 0
-611 -155 -53 0
-612 -156 -54 0
-610 -157 -55 0
-611 -158 -56 0
-612 -159 -57 0
-610 -160 -58 0
-611 -161 -59 0
-612 -162 -60 0
-610 -163 -61 0
-611 -164 -62 0
-612 -165 -63 0
-610 -166 -64 0
-611 -167 -65 0
-612 -168 -66 0
-610 -169 -67 0
-611 -170 -68 0
-612 -171 -69 0
-610 -172 -70 0
-611 -173 -71 0
-612 -174 -72 0
-610 -175 -73 0
-611 -176 -74 0
-612 -177 -75 0
-610 -178 -76 0
-611 -179 -77 0
-612 -180 -78 0
-610 -181 -79 0
-611 -182 -80 0
-612 -183 -81 0
-610 -184 -82 0
-611 -185 -83 0
-612 -186 -84 0
-610 -187 -85 0
-611 -188 -86 0
-612 -189 -87 0
-610 -190 -88 0
-611 -191 -89 0
-612 -192 -90 0
-610 -193 -91 0
-611 -194 -92 0
-612 -195 -93 0
-610 -196 -94 0
-611 -197 -95 0
-612 -198 -96 0
-610 -199 -97 0
-611 -200 -98 0
-612 -201 -99 0
-610 -202 -100 0
-611 -203 -101 0
-612 -204 -102 0
-610 -205 -103 0
-611 -206 -104 0
-612 -207 -105 0
-610 -208 -106 0
-611 -209 -107 0
-612 -210 -108 0
-610 -211 -109 0
-611 -212 -110 0
-612 -213 -111 0
-610 -214 -112 0
-611 -215 -113 0
-612 -216 -114 0
-610 -217 -115 0
-611 -218 -116 0
-612 -219 -117 0
-610 -220 -118 0
-611 -221 -119 0
-612 -222 -120 0
-610 -223 -121 0
-611 -224 -122 0
-612 -225 -123 0
-610 -226 -124 0
-611 -227 -125 0
-612 -228 -126 0
-610 -229 -127 0
-611 -230 -128 0
-612 -231 -129 0
-610 -232 -130 0
-611 -233 -131 0
-612 -234 -132 0
-610 -235 -133 0
-611 -236 -134 0
-612 -237 -135 0
-610 -238 -136 0
-611 -239 -137 0
-612 -240 -138 0
-610 -241 -139 0
-611 -242 -140 0
-612 -243 -141 0
-610 -244 -142 0
-611 -245 -143 0
-612 -246 -144 0
-610 -247 -145 0
-611 -248 -146 0
-612 -249 -147 0
-610 -250 -148 0
-611 -251 -149 0
-612 -252 -150 0
-610 -253 -151 0
-611 -254 -152 0
-612 -255 -153 0
-610 -256 -154 0
-611 -257 -155 0
-612 -258 -156 0
-610 -259 -157 0
-611 -260 -158 0
-612 -261 -159 0
-610 -262 -160 0
-611 -263 -161 0
-612 -264 -162 0
-610 -265 -163 0
-611 -266 -164 0
-612 -267 -165 0
-610 -268 -166 0
-611 -269 -167 0
-612 -270 -168 0
-610 -271 -169 0
-611 -272 -170 0
-612 -273 -171 0
-610 -274 -172 0
-611 -275 -173 0
-612 -276 -174 0
-610 -277 -175 0
-611 -278 -176 0
-612 -279 -177 0
-610 -280 -178 0
-611 -281 -179 0
-612 -282 -180 0
-610 -283 -181 0
-611 -284 -182 0
-612 -285 -183 0
-610 -286 -184 0
-611 -287 -185 0
-612 -288 -186 0
-610 -289 -187 0
-611 -290 -188 0
-612 -291 -189 0
-610 -292 -190 0
-611 -293 -191 0
-612 -294 -192 0
-610 -295 -193 0
-611 -296 -194 0
-612 -297 -195 0
-610 -298 -196 0
-611 -299 -197 0
-612 -300 -198 0
-610 -301 -199 0
-611 -302 -200 0
-612 -303 -201 0
-610 -304 -202 0
-611 -305 -203 0
-612 -306 -204 0
-610 -307 -205 0
-611 -308 -206 0
-612 -309 -207 0
-610 -310 -208 0
-611 -311 -209 0
-612 -312 -210 0
-610 -313 -211 0
-611 -314 -212 0
-612 -315 -213 0
-610 -316 -214 0
-611 -317 -215 0
-612 -318 -216 0
-610 -319 -217 0
-611 -320 -218 0
-612 -321 -219 0
-610 -322 -220 0
-611 -323 -221 0
-612 -324 -222 0
-610 -325 -223 0
-611 -326 -224 0
-612 -327 -225 0
-610 -328 -226 0
-611 -329 -227 0
-612 -330 -228 0
-610 -331 -229 0
-611 -332 -230 0
-612 -333 -231 0
-610 -334 -232 0
-611 -335 -233 0
-612 -336 -234 0
-610 -337 -235 0
-611 -338 -236 0
-612 -339 -237 0
-610 -340 -238 0
-611 -341 -239 0
-612 -342 -240 0
-610 -343 -241 0
-611 -344 -242 0
-612 -345 -243 0
-610 -346 -244 0
-611 -347 -245 0
-612 -348 -246 0
-610 -349 -247 0
-611 -350 -248 0
-612 -351 -249 0
-610 -352 -250 0
-611 -353 -251 0
-612 -354 -252 0
-610 -355 -253 0
-611 -356 -254 0
-612 -357 -255 0
-610 -358 -256 0
-611 -359 -257 0
-612 -360 -258 0
-610 -361 -259 0
-611 -362 -260 0
-612 -363 -261 0
-610 -364 -262 0
-611 -365 -263 0
-612 -366 -264 0
-610 -367 -265 0
-611 -368 -266 0
-612 -369 -267 0
-610 -370 -268 0
-611 -371 -269 0
-612 -372 -270 0
-610 -373 -271 0
-611 -374 -272 0
-612 -375 -273 0
-610 -376 -274 0
-611 -377 -275 0
-612 -378 -276 0
-610 -379 -277 0
-611 -380 -278 0
-612 -381 -279 0
-610 -382 -280 0
-611 -383 -281 0
-612 -384 -282 0
-610 -385 -283 0
-611 -386 -284 0
-612 -387 -285 0
-610 -388 -286 0
-611 -389 -287 0
-612 -390 -288 0
-610 -391 -289 0
-611 -392 -290 0
-612 -393 -291 0
-610 -394 -292 0
-611 -395 -293 0
-612 -396 -294 0
-610 -397 -295 0
-611 -398 -296 0
-612 -399 -297 0
-610 -400 -298 0
-611 -401 -299 0
-612 -402 -300 0
-610 -403 -301 0
-611 -404 -302 0
-612 -405 -303 0
-610 -406 -304 0
-611 -407 -305 0
-612 -408 -306 0
-610 -409 -307 0
-611 -410 -308 0
-612 -411 -309 0
-610 -412 -310 0
-611 -413 -311 0
-612 -414 -312 0
-610 -415 -313 0
-611 -416 -314 0
-612 -417 -315 0
-610 -418 -316 0
-611 -419 -317 0
-612 -420 -318 0
-610 -421 -319 0
-611 -422 -320 0
-612 -423 -321 0
-610 -424 -322 0
-611 -425 -323 0
-612 -426 -324 0
-610 -427 -325 0
-611 -428 -326 0
-612 -429 -327 0
-610 -430 -328 0
-611 -431 -329 0
-612 -432 -330 0
-610 -433 -331 0
-611 -434 -332 0
-612 -435 -333 0
-610 -436 -334 0
-611 -437 -335 0
-612 -438 -336 0
-610 -439 -337 0
-611 -440 -338 0
-612 -441 -339 0
-610 -442 -340 0
-611 -443 -341 0
-612 -444 -342 0
-610 -445 -343 0
-611 -446 -344 0
-612 -447 -345 0
-610 -448 -346 0
-611 -449 -347 0
-612 -450 -348 0
-610 -451 -349 0
-611 -452 -350 0
-612 -453 -351 0
-610 -454 -352 0
-611 -455 -353 0
-612 -456 -354 0
-610 -457 -355 0
-611 -458 -356 0
-612 -459 -357 0
-610 -460 -358 0
-611 -461 -359 0
-612 -462 -360 0
-610 -463 -361 0
-611 -464 -362 0
-612 -465 -363 0
-610 -466 -364 0
-611 -467 -365 0
-612 -468 -366 0
-610 -469 -367 0
-611 -470 -368 0
-612 -471 -369 0
-610 -472 -370 0
-611 -473 -371 0
-612 -474 -372 0
-610 -475 -373 0
-611 -476 -374 0
-612 -477 -375 0
-610 -478 -376 0
-611 -479 -377 0
-612 -480 -378 0
-610 -481 -379 0
-611 -482 -380 0
-612 -483 -381 0
-610 -484 -382 0
-611 -485 -383 0
-612 -486 -384 0
-610 -487 -385 0
-611 -488 -386 0
-612 -489 -387 0
-610 -490 -388 0
-611 -491 -389 0
-612 -492 -390 0
-610 -493 -391 0
-611 -494 -392 0
-612 -495 -393 0
-610 -496 -394 0
-611 -497 -395 0
-612 -498 -396 0
-610 -499 -397 0
-611 -500 -398 0
-612 -501 -399 0
-610 -502 -400 0
-611 -503 -401 0
-612 -504 -402 0
-610 -505 -403 0
-611 -506 -404 0
-612 -507 -405 0
-610 -508 -406 0
-611 -509 -407 0
-612 -510 -408 0
-610 -511 -409 0
-611 -512 -410 0
-612 -513 -411 0
-610 -514 -412 0
-611 -515 -413 0
-612 -516 -414 0
-610 -517 -415 0
-611 -518 -416 0
-612 -519 -417 0
-610 -520 -418 0
-611 -521 -419 0
-612 -522 -420 0
-610 -523 -421 0
-611 -524 -422 0
-612 -525 -423 0
-610 -526 -424 0
-611 -527 -425 0
-612 -528 -426 0
-610 -529 -427 0
-611 -530 -428 0
-612 -531 -429 0
-610 -532 -430 0
-611 -533 -431 0
-612 -534 -432 0
-610 -535 -433 0
-611 -536 -434 0
-612 -537 -435 0
-610 -538 -436 0
-611 -539 -437 0
-612 -540 -438 0
-610 -541 -439 0
-611 -542 -440 0
-612 -543 -441 0
-610 -544 -442 0
-611 -545 -443 0
-612 -546 -444 0
-610 -547 -445 0
-611 -548 -446 0
-612 -549 -447 0
-610 -550 -448 0
-611 -551 -449 0
-612 -552 -450 0
-610 -553 -451 0
-611 -554 -452 0
-612 -555 -453 0
-610 -556 -454 0
-611 -557 -455 0
-612 -558 -456 0
-610 -559 -457 0
-611 -560 -458 0
-612 -561 -459 0
-610 -562 -460 0
-611 -563 -461 0
-612 -564 -462 0
-610 -565 -463 0
-611 -566 -464 0
-612 -567 -465 0
-610 -568 -466 0
-611 -569 -467 0
-612 -570 -468 0
-610 -571 -469 0
-611 -572 -470 0
-612 -573 -471 0
-610 -574 -472 0
-611 -575 -473 0
-612 -576 -474 0
-610 -577 -475 0
-611 -578 -476 0
-612 -579 -477 0
-610 -580 -478 0
-611 -581 -479 0
-612 -582 -480 0
-610 -583 -481 0
-611 -584 -482 0
-612 -585 -483 0
-610 -586 -484 0
-611 -587 -485 0
-612 -588 -486 0
-610 -589 -487 0
-611 -590 -488 0
-612 -591 -489 0
-610 -592 -490 0
-611 -593 -491 0
-612 -594 -492 0
-610 -595 -493 0
-611 -596 -494 0
-612 -597 -495 0
-610 -598 -496 0
-611 -599 -497 0
-612 -600 -498 0
-610 -601 -499 0
-611 -602 -500 0
-612 -603 -501 0
-610 -604 -502 0
-611 -605 -503 0
-612 -606 -504 0
-610 -607 -505 0
-611 -608 -506 0
-612 -609 -507 0
-610 -508 0
-611 -509 0
-612 -510 0
-613 -610 -511 0
-614 -611 -512 0
-615 -612 -513 0
-616 -610 -514 0
-617 -611 -515 0
-618 -612 -516 0
-619 -610 -517 0
-620 -611 -518 0
-621 -612 -519 0
-622 -610 -520 0
-623 -611 -521 0
-624 -612 -522 0
-625 -610 -523 0
-626 -611 -524 0
-627 -612 -525 0
-628 -610 -526 0
-629 -611 -527 0
-630 -612 -528 0
-631 -610 -529 0
-632 -611 -530 0
-633 -612 -531 0
-634 -610 -532 0
-635 -611 -533 0
-636 -612 -534 0
-637 -610 -535 0
-638 -611 -536 0
-639 -612 -537 0
-640 -610 -538 0
-641 -611 -539 0
-642 -612 -540 0
-643 -610 -541 0
-644 -611 -542 0
-645 -612 -543 0
-646 -610 -544 0
-647 -611 -545 0
-648 -612 -546 0
-628 -106 -1 0
-629 -107 -2 0
-630 -108 -3 0
-628 -109 -4 0
-629 -110 -5 0
-630 -111 -6 0
-628 -112 -7 0
-629 -113 -8 0
-630 -114 -9 0
-628 -115 -10 0
-629 -116 -11 0
-630 -117 -12 0
-628 -118 -13 0
-629 -119 -14 0
-630 -120 -15 0
-628 -121 -16 0
-629 -122 -17 0
-630 -123 -18 0
-628 -124 -19 0
-629 -125 -20 0
-630 -126 -21 0
-628 -127 -22 0
-629 -128 -23 0
-630 -129 -24 0
-628 -130 -25 0
-629 -131 -26 0
-630 -132 -27 0
-628 -133 -28 0
-629 -134 -29 0
-630 -135 -30 0
-628 -136 -31 0
-629 -137 -32 0
-630 -138 -33 0
-628 -139 -34 0
-629 -140 -35 0
-630 -141 -36 0
-628 -142 -37 0
-629 -143 -38 0
-630 -144 -39 0
-628 -145 -40 0
-629 -146 -41 0
-630 -147 -42 0
-628 -148 -43 0
-629 -149 -44 0
-630 -150 -45 0
-628 -151 -46 0
-629 -152 -47 0
-630 -153 -48 0
-628 -154 -49 0
-629 -155 -50 0
-630 -156 -51 0
-628 -157 -52 0
-629 -158 -53 0
-630 -159 -54 0
-628 -160 -55 0
-629 -161 -56 0
-630 -162 -57 0
-628 -163 -58 0
-629 -164 -59 0
-630 -165 -60 0
-628 -166 -61 0
-629 -167 -62 0
-630 -168 -63 0
-628 -169 -64 0
-629 -170 -65 0
-630 -171 -66 0
-628 -172 -67 0
-629 -173 -68 0
-630 -174 -69 0
-628 -175 -70 0
-629 -176 -71 0
-630 -177 -72 0
-628 -178 -73 0
-629 -179 -74 0
-630 -180 -75 0
-628 -181 -76 0
-629 -182 -77 0
-630 -183 -78 0
-628 -184 -79 0
-629 -185 -80 0
-630 -186 -81 0
-628 -187 -82 0
-629 -188 -83 0
-630 -189 -84 0
-628 -190 -85 0
-629 -191 -86 0
-630 -192 -87 0
-628 -193 -88 0
-629 -194 -89 0
-630 -195 -90 0
-628 -196 -91 0
-629 -197 -92 0
-630 -198 -93 0
-628 -199 -94 0
-629 -200 -95 0
-630 -201 -96 0
-628 -202 -97 0
-629 -203 -98 0
-630 -204 -99 0
-628 -205 -100 0
-629 -206 -101 0
-630 -207 -102 0
-628 -208 -103 0
-629 -209 -104 0
-630 -210 -105 0
-628 -211 -106 0
-629 -212 -107 0
-630 -213 -108 0
-628 -214 -109 0
-629 -215 -110 0
-630 -216 -111 0
-628 -217 -112 0
-629 -218 -113 0
-630 -219 -114 0
-628 -220 -115 0
-629 -221 -116 0
-630 -222 -117 0
-628 -223 -118 0
-629 -224 -119 0
-630 -225 -120 0
-628 -226 -121 0
-629 -227 -122 0
-630 -228 -123 0
-628 -229 -124 0
-629 -230 -125 0
-630 -231 -126 0
-628 -232 -127 0
-629 -233 -128 0
-630 -234 -129 0
-628 -235 -130 0
-629 -236 -131 0
-630 -237 -132 0
-628 -238 -133 0
-629 -239 -134 0
-630 -240 -135 0
-628 -241 -136 0
-629 -242 -137 0
-630 -243 -138 0
-628 -244 -139 0
-629 -245 -140 0
-630 -246 -141 0
-628 -247 -142 0
-629 -248 -143 0
-630 -249 -144 0
-628 -250 -145 0
-629 -251 -146 0
-630 -252 -147 0
-628 -253 -148 0
-629 -254 -149 0
-630 -255 -150 0
-628 -256 -151 0
-629 -257 -152 0
-630 -258 -153 0
-628 -259 -154 0
-629 -260 -155 0
-630 -261 -156 0
-628 -262 -157 0
-629 -263 -158 0
-630 -264 -159 0
-628 -265 -160 0
-629 -266 -161 0
-630 -267 -162 0
-628 -268 -163 0
-629 -269 -164 0
-630 -270 -165 0
-628 -271 -166 0
-629 -272 -167 0
-630 -273 -168 0
-628 -274 -169 0
-629 -275 -170 0
-630 -276 -171 0
-628 -277 -172 0
-629 -278 -173 0
-630 -279 -174 0
-628 -280 -175 0
-629 -281 -176 0
-630 -282 -177 0
-628 -283 -178 0
-629 -284 -179 0
-630 -285 -180 0
-628 -286 -181 0
-629 -287 -182 0
-630 -288 -183 0
-628 -289 -184 0
-629 -290 -185 0
-630 -291 -186 0
-628 -292 -187 0
-629 -293 -188 0
-630 -294 -189 0
-628 -295 -190 0
-629 -296 -191 0
-630 -297 -192 0
-628 -298 -193 0
-629 -299 -194 0
-630 -300 -195 0
-628 -301 -196 0
-629 -302 -197 0
-630 -303 -198 0
-628 -304 -199 0
-629 -305 -200 0
-630 -306 -201 0
-628 -307 -202 0
-629 -308 -203 0
-630 -309 -204 0
-628 -310 -205 0
-629 -311 -206 0
-630 -312 -207 0
-628 -313 -208 0
-629 -314 -209 0
-630 -315 -210 0
-628 -316 -211 0
-629 -317 -212 0
-630 -318 -213 0
-628 -319 -214 0
-629 -320 -215 0
-630 -321 -216 0
-628 -322 -217 0
-629 -323 -218 0
-630 -324 -219 0
-628 -325 -220 0
-629 -326 -221 0
-630 -327 -222 0
-628 -328 -223 0
-629 -329 -224 0
-630 -330 -225 0
-628 -331 -226 0
-629 -332 -227 0
-630 -333 -228 0
-628 -334 -229 0
-629 -335 -230 0
-630 -336 -231 0
-628 -337 -232 0
-629 -338 -233 0
-630 -339 -234 0
-628 -340 -235 0
-629 -341 -236 0
-630 -342 -237 0
-628 -343 -238 0
-629 -344 -239 0
-630 -345 -240 0
-628 -346 -241 0
-629 -347 -242 0
-630 -348 -243 0
-628 -349 -244 0
-629 -350 -245 0
-630 -351 -246 0
-628 -352 -247 0
-629 -353 -248 0
-630 -354 -249 0
-628 -355 -250 0
-629 -356 -251 0
-630 -357 -252 0
-628 -358 -253 0
-629 -359 -254 0
-630 -360 -255 0
-628 -361 -256 0
-629 -362 -257 0
-630 -363 -258 0
-628 -364 -259 0
-629 -365 -260 0
-630 -366 -261 0
-628 -367 -262 0
-629 -368 -263 0
-630 -369 -264 0
-628 -370 -265 0
-629 -371 -266 0
-630 -372 -267 0
-628 -373 -268 0
-629 -374 -269 0
-630 -375 -270 0
-628 -376 -271 0
-629 -377 -272 0
-630 -378 -273 0
-628 -379 -274 0
-629 -380 -275 0
-630 -381 -276 0
-628 -382 -277 0
-629 -383 -278 0
-630 -384 -279 0
-628 -385 -280 0
-629 -386 -281 0
-630 -387 -282 0
-628 -388 -283 0
-629 -389 -284 0
-630 -390 -285 0
-628 -391 -286 0
-629 -392 -287 0
-630 -393 -288 0
-628 -394 -289 0
-629 -395 -290 0
-630 -396 -291 0
-628 -397 -292 0
-629 -398 -293 0
-630 -399 -294 0
-628 -400 -295 0
-629 -401 -296 0
-630 -402 -297 0
-628 -403 -298 0
-629 -404 -299 0
-630 -405 -300 0
-628 -406 -301 0
-629 -407 -302 0
-630 -408 -303 0
-628 -409 -304 0
-629 -410 -305 0
-630 -411 -306 0
-628 -412 -307 0
-629 -413 -308 0
-630 -414 -309 0
-628 -415 -310 0
-629 -416 -311 0
-630 -417 -312 0
-628 -418 -313 0
-629 -419 -314 0
-630 -420 -315 0
-628 -421 -316 0
-629 -422 -317 0
-630 -423 -318 0
-628 -424 -319 0
-629 -425 -320 0
-630 -426 -321 0
-628 -427 -322 0
-629 -428 -323 0
-630 -429 -324 0
-628 -430 -325 0
-629 -431 -326 0
-630 -432 -327 0
-628 -433 -328 0
-629 -434 -329 0
-630 -435 -330 0
-628 -436 -331 0
-629 -437 -332 0
-630 -438 -333 0
-628 -439 -334 0
-629 -440 -335 0
-630 -441 -336 0
-628 -442 -337 0
-629 -443 -338 0
-630 -444 -339 0
-628 -445 -340 0
-629 -446 -341 0
-630 -447 -342 0
-628 -448 -343 0
-629 -449 -344 0
-630 -450 -345 0
-628 -451 -346 0
-629 -452 -347 0
-630 -453 -348 0
-628 -454 -349 0
-629 -455 -350 0
-630 -456 -351 0
-628 -457 -352 0
-629 -458 -353 0
-630 -459 -354 0
-628 -460 -355 0
-629 -461 -356 0
-630 -462 -357 0
-628 -463 -358 0
-629 -464 -359 0
-630 -465 -360 0
-628 -466 -361 0
-629 -467 -362 0
-630 -468 -363 0
-628 -469 -364 0
-629 -470 -365 0
-630 -471 -366 0
-628 -472 -367 0
-629 -473 -368 0
-630 -474 -369 0
-628 -475 -370 0
-629 -476 -371 0
-630 -477 -372 0
-628 -478 -373 0
-629 -479 -374 0
-630 -480 -375 0
-628 -481 -376 0
-629 -482 -377 0
-630 -483 -378 0
-628 -484 -379 0
-629 -485 -380 0
-630 -486 -381 0
-628 -487 -382 0
-629 -488 -383 0
-630 -489 -384 0
-628 -490 -385 0
-629 -491 -386 0
-630 -492 -387 0
-628 -493 -388 0
-629 -494 -389 0
-630 -495 -390 0
-628 -496 -391 0
-629 -497 -392 0
-630 -498 -393 0
-628 -499 -394 0
-629 -500 -395 0
-630 -501 -396 0
-628 -502 -397 0
-629 -503 -398 0
-630 -504 -399 0
-628 -505 -400 0
-629 -506 -401 0
-630 -507 -402 0
-628 -508 -403 0
-629 -509 -404 0
-630 -510 -405 0
-628 -511 -406 0
-629 -512 -407 0
-630 -513 -408 0
-628 -514 -409 0
-629 -515 -410 0
-630 -516 -411 0
-628 -517 -412 0
-629 -518 -413 0
-630 -519 -414 0
-628 -520 -415 0
-629 -521 -416 0
-630 -522 -417 0
-628 -523 -418 0
-629 -524 -419 0
-630 -525 -420 0
-628 -526 -421 0
-629 -527 -422 0
-630 -528 -423 0
-628 -529 -424 0
-629 -530 -425 0
-630 -531 -426 0
-628 -532 -427 0
-629 -533 -428 0
-630 -534 -429 0
-628 -535 -430 0
-629 -536 -431 0
-630 -537 -432 0
-628 -538 -433 0
-629 -539 -434 0
-630 -540 -435 0
-628 -541 -436 0
-629 -542 -437 0
-630 -543 -438 0
-628 -544 -439 0
-629 -545 -440 0
-630 -546 -441 0
-628 -547 -442 0
-629 -548 -443 0
-630 -549 -444 0
-628 -550 -445 0
-629 -551 -446 0
-630 -552 -447 0
-628 -553 -448 0
-629 -554 -449 0
-630 -555 -450 0
-628 -556 -451 0
-629 -557 -452 0
-630 -558 -453 0
-628 -559 -454 0
-629 -560 -455 0
-630 -561 -456 0
-628 -562 -457 0
-629 -563 -458 0
-630 -564 -459 0
-628 -565 -460 0
-629 -566 -461 0
-630 -567 -462 0
-628 -568 -463 0
-629 -569 -464 0
-630 -570 -465 0
-628 -571 -466 0
-629 -572 -467 0
-630 -573 -468 0
-628 -574 -469 0
-629 -575 -470 0
-630 -576 -471 0
-628 -577 -472 0
-629 -578 -473 0
-630 -579 -474 0
-628 -580 -475 0
-629 -581 -476 0
-630 -582 -477 0
-628 -583 -478 0
-629 -584 -479 0
-630 -585 -480 0
-628 -586 -481 0
-629 -587 -482 0
-630 -588 -483 0
-628 -589 -484 0
-629 -590 -485 0
-630 -591 -486 0
-628 -592 -487 0
-629 -593 -488 0
-630 -594 -489 0
-628 -595 -490 0
-629 -596 -491 0
-630 -597 -492 0
-628 -598 -493 0
-629 -599 -494 0
-630 -600 -495 0
-628 -601 -496 0
-629 -602 -497 0
-630 -603 -498 0
-628 -604 -499 0
-629 -605 -500 0
-630 -606 -501 0
-628 -607 -502 0
-629 -608 -503 0
-630 -609 -504 0
-628 -610 -505 0
-629 -611 -506 0
-630 -612 -507 0
-628 -613 -508 0
-629 -614 -509 0
-630 -615 -510 0
-628 -616 -511 0
-629 -617 -512 0
-630 -618 -513 0
-628 -619 -514 0
-629 -620 -515 0
-630 -621 -516 0
-628 -622 -517 0
-629 -623 -518 0
-630 -624 -519 0
-628 -625 -520 0
-629 -626 -521 0
-630 -627 -522 0
-628 -523 0
-629 -524 0
-630 -525 0
-631 -628 -526 0
-632 -629 -527 0
-633 -630 -528 0
-634 -628 -529 0
-635 -629 -530 0
-636 -630 -531 0
-637 -628 -532 0
-638 -629 -533 0
-639 -630 -534 0
-640 -628 -535 0
-641 -629 -536 0
-642 -630 -537 0
-643 -628 -538 0
-644 -629 -539 0
-645 -630 -540 0
-646 -628 -541 0
-647 -629 -542 0
-648 -630 -543 0
-646 -109 -1 0
-647 -110 -2 0
-648 -111 -3 0
-646 -112 -4 0
-647 -113 -5 0
-648 -114 -6 0
-646 -115 -7 0
-647 -116 -8 0
-648 -117 -9 0
-646 -118 -10 0
-647 -119 -11 0
-648 -120 -12 0
-646 -121 -13 0
-647 -122 -14 0
-648 -123 -15 0
-646 -124 -16 0
-647 -125 -17 0
-648 -126 -18 0
-646 -127 -19 0
-647 -128 -20 0
-648 -129 -21 0
-646 -130 -22 0
-647 -131 -23 0
-648 -132 -24 0
-646 -133 -25 0
-647 -134 -26 0
-648 -135 -27 0
-646 -136 -28 0
-647 -137 -29 0
-648 -138 -30 0
-646 -139 -31 0
-647 -140 -32 0
-648 -141 -33 0
-646 -142 -34 0
-647 -143 -35 0
-648 -144 -36 0
-646 -145 -37 0
-647 -146 -38 0
-648 -147 -39 0
-646 -148 -40 0
-647 -149 -41 0
-648 -150 -42 0
-646 -151 -43 0
-647 -152 -44 0
-648 -153 -45 0
-646 -154 -46 0
-647 -155 -47 0
-648 -156 -48 0
-646 -157 -49 0
-647 -158 -50 0
-648 -159 -51 0
-646 -160 -52 0
-647 -161 -53 0
-648 -162 -54 0
-646 -163 -55 0
-647 -164 -56 0
-648 -165 -57 0
-646 -166 -58 0
-647 -167 -59 0
-648 -168 -60 0
-646 -169 -61 0
-647 -170 -62 0
-648 -171 -63 0
-646 -172 -64 0
-647 -173 -65 0
-648 -174 -66 0
-646 -175 -67 0
-647 -176 -68 0
-648 -177 -69 0
-646 -178 -70 0
-647 -179 -71 0
-648 -180 -72 0
-646 -181 -73 0
-647 -182 -74 0
-648 -183 -75 0
-646 -184 -76 0
-647 -185 -77 0
-648 -186 -78 0
-646 -187 -79 0
-647 -188 -80 0
-648 -189 -81 0
-646 -190 -82 0
-647 -191 -83 0
-648 -192 -84 0
-646 -193 -85 0
-647 -194 -86 0
-648 -195 -87 0
-646 -196 -88 0
-647 -197 -89 0
-648 -198 -90 0
-646 -199 -91 0
-647 -200 -92 0
-648 -201 -93 0
-646 -202 -94 0
-647 -203 -95 0
-648 -204 -96 0
-646 -205 -97 0
-647 -206 -98 0
-648 -207 -99 0
-646 -208 -100 0
-647 -209 -101 0
-648 -210 -102 0
-646 -211 -103 0
-647 -212 -104 0
-648 -213 -105 0
-646 -214 -106 0
-647 -215 -107 0
-648 -216 -108 0
-646 -217 -109 0
-647 -218 -110 0
-648 -219 -111 0
-646 -220 -112 0
-647 -221 -113 0
-648 -222 -114 0
-646 -223 -115 0
-647 -224 -116 0
-648 -225 -117 0
-646 -226 -118 0
-647 -227 -119 0
-648 -228 -120 0
-646 -229 -121 0
-647 -230 -122 0
-648 -231 -123 0
-646 -232 -124 0
-647 -233 -125 0
-648 -234 -126 0
-646 -235 -127 0
-647 -236 -128 0
-648 -237 -129 0
-646 -238 -130 0
-647 -239 -131 0
-648 -240 -132 0
-646 -241 -133 0
-647 -242 -134 0
-648 -243 -135 0
-646 -244 -136 0
-647 -245 -137 0
-648 -246 -138 0
-646 -247 -139 0
-647 -248 -140 0
-648 -249 -141 0
-646 -250 -142 0
-647 -251 -143 0
-648 -252 -144 0
-646 -253 -145 0
-647 -254 -146 0
-648 -255 -147 0
-646 -256 -148 0
-647 -257 -149 0
-648 -258 -150 0
-646 -259 -151 0
-647 -260 -152 0
-648 -261 -153 0
-646 -262 -154 0
-647 -263 -155 0
-648 -264 -156 0
-646 -265 -157 0
-647 -266 -158 0
-648 -267 -159 0
-646 -268 -160 0
-647 -269 -161 0
-648 -270 -162 0
-646 -271 -163 0
-647 -272 -164 0
-648 -273 -165 0
-646 -274 -166 0
-647 -275 -167 0
-648 -276 -168 0
-646 -277 -169 0
-647 -278 -170 0
-648 -279 -171 0
-646 -280 -172 0
-647 -281 -173 0
-648 -282 -174 0
-646 -283 -175 0
-647 -284 -176 0
-648 -285 -177 0
-646 -286 -178 0
-647 -287 -179 0
-648 -288 -180 0
-646 -289 -181 0
-647 -290 -182 0
-648 -291 -183 0
-646 -292 -184 0
-647 -293 -185 0
-648 -294 -186 0
-646 -295 -187 0
-647 -296 -188 0
-648 -297 -189 0
-646 -298 -190 0
-647 -299 -191 0
-648 -300 -192 0
-646 -301 -193 0
-647 -302 -194 0
-648 -303 -195 0
-646 -304 -196 0
-647 -305 -197 0
-648 -306 -198 0
-646 -307 -199 0
-647 -308 -200 0
-648 -309 -201 0
-646 -310 -202 0
-647 -311 -203 0
-648 -312 -204 0
-646 -313 -205 0
-647 -314 -206 0
-648 -315 -207 0
-646 -316 -208 0
-647 -317 -209 0
-648 -318 -210 0
-646 -319 -211 0
-647 -320 -212 0
-648 -321 -213 0
-646 -322 -214 0
-647 -323 -215 0
-648 -324 -216 0
-646 -325 -217 0
-647 -326 -218 0
-648 -327 -219 0
-646 -328 -220 0
-647 -329 -221 0
-648 -330 -222 0
-646 -331 -223 0
-647 -332 -224 0
-648 -333 -225 0
-646 -334 -226 0
-647 -335 -227 0
-648 -336 -228 0
-646 -337 -229 0
-647 -338 -230 0
-648 -339 -231 0
-646 -340 -232 0
-647 -341 -233 0
-648 -342 -234 0
-646 -343 -235 0
-647 -344 -236 0
-648 -345 -237 0
-646 -346 -238 0
-647 -347 -239 0
-648 -348 -240 0
-646 -349 -241 0
-647 -350 -242 0
-648 -351 -243 0
-646 -352 -244 0
-647 -353 -245 0
-648 -354 -246 0
-646 -355 -247 0
-647 -356 -248 0
-648 -357 -249 0
-646 -358 -250 0
-647 -359 -251 0
-648 -360 -252 0
-646 -361 -253 0
-647 -362 -254 0
-648 -363 -255 0
-646 -364 -256 0
-647 -365 -257 0
-648 -366 -258 0
-646 -367 -259 0
-647 -368 -260 0
-648 -369 -261 0
-646 -370 -262 0
-647 -371 -263 0
-648 -372 -264 0
-646 -373 -265 0
-647 -374 -266 0
-648 -375 -267 0
-646 -376 -268 0
-647 -377 -269 0
-648 -378 -270 0
-646 -379 -271 0
-647 -380 -272 0
-648 -381 -273 0
-646 -382 -274 0
-647 -383 -275 0
-648 -384 -276 0
-646 -385 -277 0
-647 -386 -278 0
-648 -387 -279 0
-646 -388 -280 0
-647 -389 -281 0
-648 -390 -282 0
-646 -391 -283 0
-647 -392 -284 0
-648 -393 -285 0
-646 -394 -286 0
-647 -395 -287 0
-648 -396 -288 0
-646 -397 -289 0
-647 -398 -290 0
-648 -399 -291 0
-646 -400 -292 0
-647 -401 -293 0
-648 -402 -294 0
-646 -403 -295 0
-647 -404 -296 0
-648 -405 -297 0
-646 -406 -298 0
-647 -407 -299 0
-648 -408 -300 0
-646 -409 -301 0
-647 -410 -302 0
-648 -411 -303 0
-646 -412 -304 0
-647 -413 -305 0
-648 -414 -306 0
-646 -415 -307 0
-647 -416 -308 0
-648 -417 -309 0
-646 -418 -310 0
-647 -419 -311 0
-648 -420 -312 0
-646 -421 -313 0
-647 -422 -314 0
-648 -423 -315 0
-646 -424 -316 0
-647 -425 -317 0
-648 -426 -318 0
-646 -427 -319 0
-647 -428 -320 0
-648 -429 -321 0
-646 -430 -322 0
-647 -431 -323 0
-648 -432 -324 0
-646 -433 -325 0
-647 -434 -326 0
-648 -435 -327 0
-646 -436 -328 0
-647 -437 -329 0
-648 -438 -330 0
-646 -439 -331 0
-647 -440 -332 0
-648 -441 -333 0
-646 -442 -334 0
-647 -443 -335 0
-648 -444 -336 0
-646 -445 -337 0
-647 -446 -338 0
-648 -447 -339 0
-646 -448 -340 0
-647 -449 -341 0
-648 -450 -342 0
-646 -451 -343 0
-647 -452 -344 0
-648 -453 -345 0
-646 -454 -346 0
-647 -455 -347 0
-648 -456 -348 0
-646 -457 -349 0
-647 -458 -350 0
-648 -459 -351 0
-646 -460 -352 0
-647 -461 -353 0
-648 -462 -354 0
-646 -463 -355 0
-647 -464 -356 0
-648 -465 -357 0
-646 -466 -358 0
-647 -467 -359 0
-648 -468 -360 0
-646 -469 -361 0
-647 -470 -362 0
-648 -471 -363 0
-646 -472 -364 0
-647 -473 -365 0
-648 -474 -366 0
-646 -475 -367 0
-647 -476 -368 0
-648 -477 -369 0
-646 -478 -370 0
-647 -479 -371 0
-648 -480 -372 0
-646 -481 -373 0
-647 -482 -374 0
-648 -483 -375 0
-646 -484 -376 0
-647 -485 -377 0
-648 -486 -378 0
-646 -487 -379 0
-647 -488 -380 0
-648 -489 -381 0
-646 -490 -382 0
-647 -491 -383 0
-648 -492 -384 0
-646 -493 -385 0
-647 -494 -386 0
-648 -495 -387 0
-646 -496 -388 0
-647 -497 -389 0
-648 -498 -390 0
-646 -499 -391 0
-647 -500 -392 0
-648 -501 -393 0
-646 -502 -394 0
-647 -503 -395 0
-648 -504 -396 0
-646 -505 -397 0
-647 -506 -398 0
-648 -507 -399 0
-646 -508 -400 0
-647 -509 -401 0
-648 -510 -402 0
-646 -511 -403 0
-647 -512 -404 0
-648 -513 -405 0
-646 -514 -406 0
-647 -515 -407 0
-648 -516 -408 0
-646 -517 -409 0
-647 -518 -410 0
-648 -519 -411 0
-646 -520 -412 0
-647 -521 -413 0
-648 -522 -414 0
-646 -523 -415 0
-647 -524 -416 0
-648 -525 -417 0
-646 -526 -418 0
-647 -527 -419 0
-648 -528 -420 0
-646 -529 -421 0
-647 -530 -422 0
-648 -531 -423 0
-646 -532 -424 0
-647 -533 -425 0
-648 -534 -426 0
-646 -535 -427 0
-647 -536 -428 0
-648 -537 -429 0
-646 -538 -430 0
-647 -539 -431 0
-648 -540 -432 0
-646 -541 -433 0
-647 -542 -434 0
-648 -543 -435 0
-646 -544 -436 0
-647 -545 -437 0
-648 -546 -438 0
-646 -547 -439 0
-647 -548 -440 0
-648 -549 -441 0
-646 -550 -442 0
-647 -551 -443 0
-648 -552 -444 0
-646 -553 -445 0
-647 -554 -446 0
-648 -555 -447 0
-646 -556 -448 0
-647 -557 -449 0
-648 -558 -450 0
-646 -559 -451 0
-647 -560 -452 0
-648 -561 -453 0
-646 -562 -454 0
-647 -563 -455 0
-648 -564 -456 0
-646 -565 -457 0
-647 -566 -458 0
-648 -567 -459 0
-646 -568 -460 0
-647 -569 -461 0
-648 -570 -462 0
-646 -571 -463 0
-647 -572 -464 0
-648 -573 -465 0
-646 -574 -466 0
-647 -575 -467 0
-648 -576 -468 0
-646 -577 -469 0
-647 -578 -470 0
-648 -579 -471 0
-646 -580 -472 0
-647 -581 -473 0
-648 -582 -474 0
-646 -583 -475 0
-647 -584 -476 0
-648 -585 -477 0
-646 -586 -478 0
-647 -587 -479 0
-648 -588 -480 0
-646 -589 -481 0
-647 -590 -482 0
-648 -591 -483 0
-646 -592 -484 0
-647 -593 -485 0
-648 -594 -486 0
-646 -595 -487 0
-647 -596 -488 0
-648 -597 -489 0
-646 -598 -490 0
-647 -599 -491 0
-648 -600 -492 0
-646 -601 -493 0
-647 -602 -494 0
-648 -603 -495 0
-646 -604 -496 0
-647 -605 -497 0
-648 -606 -498 0
-646 -607 -499 0
-647 -608 -500 0
-648 -609 -501 0
-646 -610 -502 0
-647 -611 -503 0
-648 -612 -504 0
-646 -613 -505 0
-647 -614 -506 0
-648 -615 -507 0
-646 -616 -508 0
-647 -617 -509 0
-648 -618 -510 0
-646 -619 -511 0
-647 -620 -512 0
-648 -621 -513 0
-646 -622 -514 0
-647 -623 -515 0
-648 -624 -516 0
-646 -625 -517 0
-647 -626 -518 0
-648 -627 -519 0
-646 -628 -520 0
-647 -629 -521 0
-648 -630 -522 0
-646 -631 -523 0
-647 -632 -524 0
-648 -633 -525 0
-646 -634 -526 0
-647 -635 -527 0
-648 -636 -528 0
-646 -637 -529 0
-647 -638 -530 0
-648 -639 -531 0
-646 -640 -532 0
-647 -641 -533 0
-648 -642 -534 0
-646 -643 -535 0
-647 -644 -536 0
-648 -645 -537 0
-646 -538 0
-647 -539 0
-648 -540 0
