p cnf 192 2920
1 2 3 0
-1 -2 0
-1 -3 0
-2 -3 0
4 5 6 0
-4 -5 0
-4 -6 0
-5 -6 0
7 8 9 0
-7 -8 0
-7 -9 0
-8 -9 0
10 11 12 0
-10 -11 0
-10 -12 0
-11 -12 0
13 14 15 0
-13 -14 0
-13 -15 0
-14 -15 0
16 17 18 0
-16 -17 0
-16 -18 0
-17 -18 0
19 20 21 0
-19 -20 0
-19 -21 0
-20 -21 0
22 23 24 0
-22 -23 0
-22 -24 0
-23 -24 0
25 26 27 0
-25 -26 0
-25 -27 0
-26 -27 0
28 29 30 0
-28 -29 0
-28 -30 0
-29 -30 0
31 32 33 0
-31 -32 0
-31 -33 0
-32 -33 0
34 35 36 0
-34 -35 0
-34 -36 0
-35 -36 0
37 38 39 0
-37 -38 0
-37 -39 0
-38 -39 0
40 41 42 0
-40 -41 0
-40 -42 0
-41 -42 0
43 44 45 0
-43 -44 0
-43 -45 0
-44 -45 0
46 47 48 0
-46 -47 0
-46 -48 0
-47 -48 0
49 50 51 0
-49 -50 0
-49 -51 0
-50 -51 0
52 53 54 0
-52 -53 0
-52 -54 0
-53 -54 0
55 56 57 0
-55 -56 0
-55 -57 0
-56 -57 0
58 59 60 0
-58 -59 0
-58 -60 0
-59 -60 0
61 62 63 0
-61 -62 0
-61 -63 0
-62 -63 0
64 65 66 0
-64 -65 0
-64 -66 0
-65 -66 0
67 68 69 0
-67 -68 0
-67 -69 0
-68 -69 0
70 71 72 0
-70 -71 0
-70 -72 0
-71 -72 0
73 74 75 0
-73 -74 0
-73 -75 0
-74 -75 0
76 77 78 0
-76 -77 0
-76 -78 0
-77 -78 0
79 80 81 0
-79 -80 0
-79 -81 0
-80 -81 0
82 83 84 0
-82 -83 0
-82 -84 0
-83 -84 0
85 86 87 0
-85 -86 0
-85 -87 0
-86 -87 0
88 89 90 0
-88 -89 0
-88 -90 0
-89 -90 0
91 92 93 0
-91 -92 0
-91 -93 0
-92 -93 0
94 95 96 0
-94 -95 0
-94 -96 0
-95 -96 0
97 98 99 0
-97 -98 0
-97 -99 0
-98 -99 0
100 101 102 0
-100 -101 0
-100 -102 0
-101 -102 0
103 104 105 0
-103 -104 0
-103 -105 0
-104 -105 0
106 107 108 0
-106 -107 0
-106 -108 0
-107 -108 0
109 110 111 0
-109 -110 0
-109 -111 0
-110 -111 0
112 113 114 0
-112 -113 0
-112 -114 0
-113 -114 0
115 116 117 0
-115 -116 0
-115 -117 0
-116 -117 0
118 119 120 0
-118 -119 0
-118 -120 0
-119 -120 0
121 122 123 0
-121 -122 0
-121 -123 0
-122 -123 0
124 125 126 0
-124 -125 0
-124 -126 0
-125 -126 0
127 128 129 0
-127 -128 0
-127 -129 0
-128 -129 0
130 131 132 0
-130 -131 0
-130 -132 0
-131 -132 0
133 134 135 0
-133 -134 0
-133 -135 0
-134 -135 0
136 137 138 0
-136 -137 0
-136 -138 0
-137 -138 0
139 140 141 0
-139 -140 0
-139 -141 0
-140 -141 0
142 143 144 0
-142 -143 0
-142 -144 0
-143 -144 0
145 146 147 0
-145 -146 0
-145 -147 0
-146 -147 0
148 149 150 0
-148 -149 0
-148 -150 0
-149 -150 0
151 152 153 0
-151 -152 0
-151 -153 0
-152 -153 0
154 155 156 0
-154 -155 0
-154 -156 0
-155 -156 0
157 158 159 0
-157 -158 0
-157 -159 0
-158 -159 0
160 161 162 0
-160 -161 0
-160 -162 0
-161 -162 0
163 164 165 0
-163 -164 0
-163 -165 0
-164 -165 0
166 167 168 0
-166 -167 0
-166 -168 0
-167 -168 0
169 170 171 0
-169 -170 0
-169 -171 0
-170 -171 0
172 173 174 0
-172 -173 0
-172 -174 0
-173 -174 0
175 176 177 0
-175 -176 0
-175 -177 0
-176 -177 0
178 179 180 0
-178 -179 0
-178 -180 0
-179 -180 0
181 182 183 0
-181 -182 0
-181 -183 0
-182 -183 0
184 185 186 0
-184 -185 0
-184 -186 0
-185 -186 0
187 188 189 0
-187 -188 0
-187 -189 0
-188 -189 0
190 191 192 0
-190 -191 0
-190 -192 0
-191 -192 0
-10 -4 -1 0
-11 -5 -2 0
-12 -6 -3 0
-10 -7 -4 0
-11 -8 -5 0
-12 -9 -6 0
-10 -7 0
-11 -8 0
-12 -9 0
-13 -10 0
-14 -11 0
-15 -12 0
-16 -13 -10 0
-17 -14 -11 0
-18 -15 -12 0
-19 -16 -10 0
-20 -17 -11 0
-21 -18 -12 0
-22 -19 -10 0
-23 -20 -11 0
-24 -21 -12 0
-25 -22 -10 0
-26 -23 -11 0
-27 -24 -12 0
-28 -25 -10 0
-29 -26 -11 0
-30 -27 -12 0
-31 -28 -10 0
-32 -29 -11 0
-33 -30 -12 0
-34 -31 -10 0
-35 -32 -11 0
-36 -33 -12 0
-37 -34 -10 0
-38 -35 -11 0
-39 -36 -12 0
-40 -37 -10 0
-41 -38 -11 0
-42 -39 -12 0
-43 -40 -10 0
-44 -41 -11 0
-45 -42 -12 0
-46 -43 -10 0
-47 -44 -11 0
-48 -45 -12 0
-49 -46 -10 0
-50 -47 -11 0
-51 -48 -12 0
-52 -49 -10 0
-53 -50 -11 0
-54 -51 -12 0
-55 -52 -10 0
-56 -53 -11 0
-57 -54 -12 0
-58 -55 -10 0
-59 -56 -11 0
-60 -57 -12 0
-61 -58 -10 0
-62 -59 -11 0
-63 -60 -12 0
-64 -61 -10 0
-65 -62 -11 0
-66 -63 -12 0
-67 -64 -10 0
-68 -65 -11 0
-69 -66 -12 0
-70 -67 -10 0
-71 -68 -11 0
-72 -69 -12 0
-73 -70 -10 0
-74 -71 -11 0
-75 -72 -12 0
-76 -73 -10 0
-77 -74 -11 0
-78 -75 -12 0
-79 -76 -10 0
-80 -77 -11 0
-81 -78 -12 0
-82 -79 -10 0
-83 -80 -11 0
-84 -81 -12 0
-85 -82 -10 0
-86 -83 -11 0
-87 -84 -12 0
-88 -85 -10 0
-89 -86 -11 0
-90 -87 -12 0
-91 -88 -10 0
-92 -89 -11 0
-93 -90 -12 0
-94 -91 -10 0
-95 -92 -11 0
-96 -93 -12 0
-97 -94 -10 0
-98 -95 -11 0
-99 -96 -12 0
-100 -97 -10 0
-101 -98 -11 0
-102 -99 -12 0
-103 -100 -10 0
-104 -101 -11 0
-105 -102 -12 0
-106 -103 -10 0
-107 -104 -11 0
-108 -105 -12 0
-109 -106 -10 0
-110 -107 -11 0
-111 -108 -12 0
-112 -109 -10 0
-113 -110 -11 0
-114 -111 -12 0
-115 -112 -10 0
-116 -113 -11 0
-117 -114 -12 0
-118 -115 -10 0
-119 -116 -11 0
-120 -117 -12 0
-121 -118 -10 0
-122 -119 -11 0
-123 -120 -12 0
-124 -121 -10 0
-125 -122 -11 0
-126 -123 -12 0
-127 -124 -10 0
-128 -125 -11 0
-129 -126 -12 0
-130 -127 -10 0
-131 -128 -11 0
-132 -129 -12 0
-133 -130 -10 0
-134 -131 -11 0
-135 -132 -12 0
-136 -133 -10 0
-137 -134 -11 0
-138 -135 -12 0
-139 -136 -10 0
-140 -137 -11 0
-141 -138 -12 0
-142 -139 -10 0
-143 -140 -11 0
-144 -141 -12 0
-145 -142 -10 0
-146 -143 -11 0
-147 -144 -12 0
-148 -145 -10 0
-149 -146 -11 0
-150 -147 -12 0
-151 -148 -10 0
-152 -149 -11 0
-153 -150 -12 0
-154 -151 -10 0
-155 -152 -11 0
-156 -153 -12 0
-157 -154 -10 0
-158 -155 -11 0
-159 -156 -12 0
-160 -157 -10 0
-161 -158 -11 0
-162 -159 -12 0
-163 -160 -10 0
-164 -161 -11 0
-165 -162 -12 0
-166 -163 -10 0
-167 -164 -11 0
-168 -165 -12 0
-169 -166 -10 0
-170 -167 -11 0
-171 -168 -12 0
-172 -169 -10 0
-173 -170 -11 0
-174 -171 -12 0
-175 -172 -10 0
-176 -173 -11 0
-177 -174 -12 0
-178 -175 -10 0
-179 -176 -11 0
-180 -177 -12 0
-181 -178 -10 0
-182 -179 -11 0
-183 -180 -12 0
-184 -181 -10 0
-185 -182 -11 0
-186 -183 -12 0
-187 -184 -10 0
-188 -185 -11 0
-189 -186 -12 0
-190 -187 -10 0
-191 -188 -11 0
-192 -189 -12 0
-22 -7 -1 0
-23 -8 -2 0
-24 -9 -3 0
-22 -10 -4 0
-23 -11 -5 0
-24 -12 -6 0
-22 -13 -7 0
-23 -14 -8 0
-24 -15 -9 0
-22 -16 -10 0
-23 -17 -11 0
-24 -18 -12 0
-22 -19 -13 0
-23 -20 -14 0
-24 -21 -15 0
-22 -16 0
-23 -17 0
-24 -18 0
-25 -22 -19 0
-26 -23 -20 0
-27 -24 -21 0
-28 -22 0
-29 -23 0
-30 -24 0
-31 -25 -22 0
-32 -26 -23 0
-33 -27 -24 0
-34 -28 -22 0
-35 -29 -23 0
-36 -30 -24 0
-37 -31 -22 0
-38 -32 -23 0
-39 -33 -24 0
-40 -34 -22 0
-41 -35 -23 0
-42 -36 -24 0
-43 -37 -22 0
-44 -38 -23 0
-45 -39 -24 0
-46 -40 -22 0
-47 -41 -23 0
-48 -42 -24 0
-49 -43 -22 0
-50 -44 -23 0
-51 -45 -24 0
-52 -46 -22 0
-53 -47 -23 0
-54 -48 -24 0
-55 -49 -22 0
-56 -50 -23 0
-57 -51 -24 0
-58 -52 -22 0
-59 -53 -23 0
-60 -54 -24 0
-61 -55 -22 0
-62 -56 -23 0
-63 -57 -24 0
-64 -58 -22 0
-65 -59 -23 0
-66 -60 -24 0
-67 -61 -22 0
-68 -62 -23 0
-69 -63 -24 0
-70 -64 -22 0
-71 -65 -23 0
-72 -66 -24 0
-73 -67 -22 0
-74 -68 -23 0
-75 -69 -24 0
-76 -70 -22 0
-77 -71 -23 0
-78 -72 -24 0
-79 -73 -22 0
-80 -74 -23 0
-81 -75 -24 0
-82 -76 -22 0
-83 -77 -23 0
-84 -78 -24 0
-85 -79 -22 0
-86 -80 -23 0
-87 -81 -24 0
-88 -82 -22 0
-89 -83 -23 0
-90 -84 -24 0
-91 -85 -22 0
-92 -86 -23 0
-93 -87 -24 0
-94 -88 -22 0
-95 -89 -23 0
-96 -90 -24 0
-97 -91 -22 0
-98 -92 -23 0
-99 -93 -24 0
-100 -94 -22 0
-101 -95 -23 0
-102 -96 -24 0
-103 -97 -22 0
-104 -98 -23 0
-105 -99 -24 0
-106 -100 -22 0
-107 -101 -23 0
-108 -102 -24 0
-109 -103 -22 0
-110 -104 -23 0
-111 -105 -24 0
-112 -106 -22 0
-113 -107 -23 0
-114 -108 -24 0
-115 -109 -22 0
-116 -110 -23 0
-117 -111 -24 0
-118 -112 -22 0
-119 -113 -23 0
-120 -114 -24 0
-121 -115 -22 0
-122 -116 -23 0
-123 -117 -24 0
-124 -118 -22 0
-125 -119 -23 0
-126 -120 -24 0
-127 -121 -22 0
-128 -122 -23 0
-129 -123 -24 0
-130 -124 -22 0
-131 -125 -23 0
-132 -126 -24 0
-133 -127 -22 0
-134 -128 -23 0
-135 -129 -24 0
-136 -130 -22 0
-137 -131 -23 0
-138 -132 -24 0
-139 -133 -22 0
-140 -134 -23 0
-141 -135 -24 0
-142 -136 -22 0
-143 -137 -23 0
-144 -138 -24 0
-145 -139 -22 0
-146 -140 -23 0
-147 -141 -24 0
-148 -142 -22 0
-149 -143 -23 0
-150 -144 -24 0
-151 -145 -22 0
-152 -146 -23 0
-153 -147 -24 0
-154 -148 -22 0
-155 -149 -23 0
-156 -150 -24 0
-157 -151 -22 0
-158 -152 -23 0
-159 -153 -24 0
-160 -154 -22 0
-161 -155 -23 0
-162 -156 -24 0
-163 -157 -22 0
-164 -158 -23 0
-165 -159 -24 0
-166 -160 -22 0
-167 -161 -23 0
-168 -162 -24 0
-169 -163 -22 0
-170 -164 -23 0
-171 -165 -24 0
-172 -166 -22 0
-173 -167 -23 0
-174 -168 -24 0
-175 -169 -22 0
-176 -170 -23 0
-177 -171 -24 0
-178 -172 -22 0
-179 -173 -23 0
-180 -174 -24 0
-181 -175 -22 0
-182 -176 -23 0
-183 -177 -24 0
-184 -178 -22 0
-185 -179 -23 0
-186 -180 -24 0
-187 -181 -22 0
-188 -182 -23 0
-189 -183 -24 0
-190 -184 -22 0
-191 -185 -23 0
-192 -186 -24 0
-34 -10 -1 0
-35 -11 -2 0
-36 -12 -3 0
-34 -13 -4 0
-35 -14 -5 0
-36 -15 -6 0
-34 -16 -7 0
-35 -17 -8 0
-36 -18 -9 0
-34 -19 -10 0
-35 -20 -11 0
-36 -21 -12 0
-34 -22 -13 0
-35 -23 -14 0
-36 -24 -15 0
-34 -25 -16 0
-35 -26 -17 0
-36 -27 -18 0
-34 -28 -19 0
-35 -29 -20 0
-36 -30 -21 0
-34 -31 -22 0
-35 -32 -23 0
-36 -33 -24 0
-34 -25 0
-35 -26 0
-36 -27 0
-37 -34 -28 0
-38 -35 -29 0
-39 -36 -30 0
-40 -34 -31 0
-41 -35 -32 0
-42 -36 -33 0
-43 -34 0
-44 -35 0
-45 -36 0
-46 -37 -34 0
-47 -38 -35 0
-48 -39 -36 0
-49 -40 -34 0
-50 -41 -35 0
-51 -42 -36 0
-52 -43 -34 0
-53 -44 -35 0
-54 -45 -36 0
-55 -46 -34 0
-56 -47 -35 0
-57 -48 -36 0
-58 -49 -34 0
-59 -50 -35 0
-60 -51 -36 0
-61 -52 -34 0
-62 -53 -35 0
-63 -54 -36 0
-64 -55 -34 0
-65 -56 -35 0
-66 -57 -36 0
-67 -58 -34 0
-68 -59 -35 0
-69 -60 -36 0
-70 -61 -34 0
-71 -62 -35 0
-72 -63 -36 0
-73 -64 -34 0
-74 -65 -35 0
-75 -66 -36 0
-76 -67 -34 0
-77 -68 -35 0
-78 -69 -36 0
-79 -70 -34 0
-80 -71 -35 0
-81 -72 -36 0
-82 -73 -34 0
-83 -74 -35 0
-84 -75 -36 0
-85 -76 -34 0
-86 -77 -35 0
-87 -78 -36 0
-88 -79 -34 0
-89 -80 -35 0
-90 -81 -36 0
-91 -82 -34 0
-92 -83 -35 0
-93 -84 -36 0
-94 -85 -34 0
-95 -86 -35 0
-96 -87 -36 0
-97 -88 -34 0
-98 -89 -35 0
-99 -90 -36 0
-100 -91 -34 0
-101 -92 -35 0
-102 -93 -36 0
-103 -94 -34 0
-104 -95 -35 0
-105 -96 -36 0
-106 -97 -34 0
-107 -98 -35 0
-108 -99 -36 0
-109 -100 -34 0
-110 -101 -35 0
-111 -102 -36 0
-112 -103 -34 0
-113 -104 -35 0
-114 -105 -36 0
-115 -106 -34 0
-116 -107 -35 0
-117 -108 -36 0
-118 -109 -34 0
-119 -110 -35 0
-120 -111 -36 0
-121 -112 -34 0
-122 -113 -35 0
-123 -114 -36 0
-124 -115 -34 0
-125 -116 -35 0
-126 -117 -36 0
-127 -118 -34 0
-128 -119 -35 0
-129 -120 -36 0
-130 -121 -34 0
-131 -122 -35 0
-132 -123 -36 0
-133 -124 -34 0
-134 -125 -35 0
-135 -126 -36 0
-136 -127 -34 0
-137 -128 -35 0
-138 -129 -36 0
-139 -130 -34 0
-140 -131 -35 0
-141 -132 -36 0
-142 -133 -34 0
-143 -134 -35 0
-144 -135 -36 0
-145 -136 -34 0
-146 -137 -35 0
-147 -138 -36 0
-148 -139 -34 0
-149 -140 -35 0
-150 -141 -36 0
-151 -142 -34 0
-152 -143 -35 0
-153 -144 -36 0
-154 -145 -34 0
-155 -146 -35 0
-156 -147 -36 0
-157 -148 -34 0
-158 -149 -35 0
-159 -150 -36 0
-160 -151 -34 0
-161 -152 -35 0
-162 -153 -36 0
-163 -154 -34 0
-164 -155 -35 0
-165 -156 -36 0
-166 -157 -34 0
-167 -158 -35 0
-168 -159 -36 0
-169 -160 -34 0
-170 -161 -35 0
-171 -162 -36 0
-172 -163 -34 0
-173 -164 -35 0
-174 -165 -36 0
-175 -166 -34 0
-176 -167 -35 0
-177 -168 -36 0
-178 -169 -34 0
-179 -170 -35 0
-180 -171 -36 0
-181 -172 -34 0
-182 -173 -35 0
-183 -174 -36 0
-184 -175 -34 0
-185 -176 -35 0
-186 -177 -36 0
-187 -178 -34 0
-188 -179 -35 0
-189 -180 -36 0
-190 -181 -34 0
-191 -182 -35 0
-192 -183 -36 0
-46 -13 -1 0
-47 -14 -2 0
-48 -15 -3 0
-46 -16 -4 0
-47 -17 -5 0
-48 -18 -6 0
-46 -19 -7 0
-47 -20 -8 0
-48 -21 -9 0
-46 -22 -10 0
-47 -23 -11 0
-48 -24 -12 0
-46 -25 -13 0
-47 -26 -14 0
-48 -27 -15 0
-46 -28 -16 0
-47 -29 -17 0
-48 -30 -18 0
-46 -31 -19 0
-47 -32 -20 0
-48 -33 -21 0
-46 -34 -22 0
-47 -35 -23 0
-48 -36 -24 0
-46 -37 -25 0
-47 -38 -26 0
-48 -39 -27 0
-46 -40 -28 0
-47 -41 -29 0
-48 -42 -30 0
-46 -43 -31 0
-47 -44 -32 0
-48 -45 -33 0
-46 -34 0
-47 -35 0
-48 -36 0
-49 -46 -37 0
-50 -47 -38 0
-51 -48 -39 0
-52 -46 -40 0
-53 -47 -41 0
-54 -48 -42 0
-55 -46 -43 0
-56 -47 -44 0
-57 -48 -45 0
-58 -46 0
-59 -47 0
-60 -48 0
-61 -49 -46 0
-62 -50 -47 0
-63 -51 -48 0
-64 -52 -46 0
-65 -53 -47 0
-66 -54 -48 0
-67 -55 -46 0
-68 -56 -47 0
-69 -57 -48 0
-70 -58 -46 0
-71 -59 -47 0
-72 -60 -48 0
-73 -61 -46 0
-74 -62 -47 0
-75 -63 -48 0
-76 -64 -46 0
-77 -65 -47 0
-78 -66 -48 0
-79 -67 -46 0
-80 -68 -47 0
-81 -69 -48 0
-82 -70 -46 0
-83 -71 -47 0
-84 -72 -48 0
-85 -73 -46 0
-86 -74 -47 0
-87 -75 -48 0
-88 -76 -46 0
-89 -77 -47 0
-90 -78 -48 0
-91 -79 -46 0
-92 -80 -47 0
-93 -81 -48 0
-94 -82 -46 0
-95 -83 -47 0
-96 -84 -48 0
-97 -85 -46 0
-98 -86 -47 0
-99 -87 -48 0
-100 -88 -46 0
-101 -89 -47 0
-102 -90 -48 0
-103 -91 -46 0
-104 -92 -47 0
-105 -93 -48 0
-106 -94 -46 0
-107 -95 -47 0
-108 -96 -48 0
-109 -97 -46 0
-110 -98 -47 0
-111 -99 -48 0
-112 -100 -46 0
-113 -101 -47 0
-114 -102 -48 0
-115 -103 -46 0
-116 -104 -47 0
-117 -105 -48 0
-118 -106 -46 0
-119 -107 -47 0
-120 -108 -48 0
-121 -109 -46 0
-122 -110 -47 0
-123 -111 -48 0
-124 -112 -46 0
-125 -113 -47 0
-126 -114 -48 0
-127 -115 -46 0
-128 -116 -47 0
-129 -117 -48 0
-130 -118 -46 0
-131 -119 -47 0
-132 -120 -48 0
-133 -121 -46 0
-134 -122 -47 0
-135 -123 -48 0
-136 -124 -46 0
-137 -125 -47 0
-138 -126 -48 0
-139 -127 -46 0
-140 -128 -47 0
-141 -129 -48 0
-142 -130 -46 0
-143 -131 -47 0
-144 -132 -48 0
-145 -133 -46 0
-146 -134 -47 0
-147 -135 -48 0
-148 -136 -46 0
-149 -137 -47 0
-150 -138 -48 0
-151 -139 -46 0
-152 -140 -47 0
-153 -141 -48 0
-154 -142 -46 0
-155 -143 -47 0
-156 -144 -48 0
-157 -145 -46 0
-158 -146 -47 0
-159 -147 -48 0
-160 -148 -46 0
-161 -149 -47 0
-162 -150 -48 0
-163 -151 -46 0
-164 -152 -47 0
-165 -153 -48 0
-166 -154 -46 0
-167 -155 -47 0
-168 -156 -48 0
-169 -157 -46 0
-170 -158 -47 0
-171 -159 -48 0
-172 -160 -46 0
-173 -161 -47 0
-174 -162 -48 0
-175 -163 -46 0
-176 -164 -47 0
-177 -165 -48 0
-178 -166 -46 0
-179 -167 -47 0
-180 -168 -48 0
-181 -169 -46 0
-182 -170 -47 0
-183 -171 -48 0
-184 -172 -46 0
-185 -173 -47 0
-186 -174 -48 0
-187 -175 -46 0
-188 -176 -47 0
-189 -177 -48 0
-190 -178 -46 0
-191 -179 -47 0
-192 -180 -48 0
-58 -16 -1 0
-59 -17 -2 0
-60 -18 -3 0
-58 -19 -4 0
-59 -20 -5 0
-60 -21 -6 0
-58 -22 -7 0
-59 -23 -8 0
-60 -24 -9 0
-58 -25 -10 0
-59 -26 -11 0
-60 -27 -12 0
-58 -28 -13 0
-59 -29 -14 0
-60 -30 -15 0
-58 -31 -16 0
-59 -32 -17 0
-60 -33 -18 0
-58 -34 -19 0
-59 -35 -20 0
-60 -36 -21 0
-58 -37 -22 0
-59 -38 -23 0
-60 -39 -24 0
-58 -40 -25 0
-59 -41 -26 0
-60 -42 -27 0
-58 -43 -28 0
-59 -44 -29 0
-60 -45 -30 0
-58 -46 -31 0
-59 -47 -32 0
-60 -48 -33 0
-58 -49 -34 0
-59 -50 -35 0
-60 -51 -36 0
-58 -52 -37 0
-59 -53 -38 0
-60 -54 -39 0
-58 -55 -40 0
-59 -56 -41 0
-60 -57 -42 0
-58 -43 0
-59 -44 0
-60 -45 0
-61 -58 -46 0
-62 -59 -47 0
-63 -60 -48 0
-64 -58 -49 0
-65 -59 -50 0
-66 -60 -51 0
-67 -58 -52 0
-68 -59 -53 0
-69 -60 -54 0
-70 -58 -55 0
-71 -59 -56 0
-72 -60 -57 0
-73 -58 0
-74 -59 0
-75 -60 0
-76 -61 -58 0
-77 -62 -59 0
-78 -63 -60 0
-79 -64 -58 0
-80 -65 -59 0
-81 -66 -60 0
-82 -67 -58 0
-83 -68 -59 0
-84 -69 -60 0
-85 -70 -58 0
-86 -71 -59 0
-87 -72 -60 0
-88 -73 -58 0
-89 -74 -59 0
-90 -75 -60 0
-91 -76 -58 0
-92 -77 -59 0
-93 -78 -60 0
-94 -79 -58 0
-95 -80 -59 0
-96 -81 -60 0
-97 -82 -58 0
-98 -83 -59 0
-99 -84 -60 0
-100 -85 -58 0
-101 -86 -59 0
-102 -87 -60 0
-103 -88 -58 0
-104 -89 -59 0
-105 -90 -60 0
-106 -91 -58 0
-107 -92 -59 0
-108 -93 -60 0
-109 -94 -58 0
-110 -95 -59 0
-111 -96 -60 0
-112 -97 -58 0
-113 -98 -59 0
-114 -99 -60 0
-115 -100 -58 0
-116 -101 -59 0
-117 -102 -60 0
-118 -103 -58 0
-119 -104 -59 0
-120 -105 -60 0
-121 -106 -58 0
-122 -107 -59 0
-123 -108 -60 0
-124 -109 -58 0
-125 -110 -59 0
-126 -111 -60 0
-127 -112 -58 0
-128 -113 -59 0
-129 -114 -60 0
-130 -115 -58 0
-131 -116 -59 0
-132 -117 -60 0
-133 -118 -58 0
-134 -119 -59 0
-135 -120 -60 0
-136 -121 -58 0
-137 -122 -59 0
-138 -123 -60 0
-139 -124 -58 0
-140 -125 -59 0
-141 -126 -60 0
-142 -127 -58 0
-143 -128 -59 0
-144 -129 -60 0
-145 -130 -58 0
-146 -131 -59 0
-147 -132 -60 0
-148 -133 -58 0
-149 -134 -59 0
-150 -135 -60 0
-151 -136 -58 0
-152 -137 -59 0
-153 -138 -60 0
-154 -139 -58 0
-155 -140 -59 0
-156 -141 -60 0
-157 -142 -58 0
-158 -143 -59 0
-159 -144 -60 0
-160 -145 -58 0
-161 -146 -59 0
-162 -147 -60 0
-163 -148 -58 0
-164 -149 -59 0
-165 -150 -60 0
-166 -151 -58 0
-167 -152 -59 0
-168 -153 -60 0
-169 -154 -58 0
-170 -155 -59 0
-171 -156 -60 0
-172 -157 -58 0
-173 -158 -59 0
-174 -159 -60 0
-175 -160 -58 0
-176 -161 -59 0
-177 -162 -60 0
-178 -163 -58 0
-179 -164 -59 0
-180 -165 -60 0
-181 -166 -58 0
-182 -167 -59 0
-183 -168 -60 0
-184 -169 -58 0
-185 -170 -59 0
-186 -171 -60 0
-187 -172 -58 0
-188 -173 -59 0
-189 -174 -60 0
-190 -175 -58 0
-191 -176 -59 0
-192 -177 -60 0
-70 -19 -1 0
-71 -20 -2 0
-72 -21 -3 0
-70 -22 -4 0
-71 -23 -5 0
-72 -24 -6 0
-70 -25 -7 0
-71 -26 -8 0
-72 -27 -9 0
-70 -28 -10 0
-71 -29 -11 0
-72 -30 -12 0
-70 -31 -13 0
-71 -32 -14 0
-72 -33 -15 0
-70 -34 -16 0
-71 -35 -17 0
-72 -36 -18 0
-70 -37 -19 0
-71 -38 -20 0
-72 -39 -21 0
-70 -40 -22 0
-71 -41 -23 0
-72 -42 -24 0
-70 -43 -25 0
-71 -44 -26 0
-72 -45 -27 0
-70 -46 -28 0
-71 -47 -29 0
-72 -48 -30 0
-70 -49 -31 0
-71 -50 -32 0
-72 -51 -33 0
-70 -52 -34 0
-71 -53 -35 0
-72 -54 -36 0
-70 -55 -37 0
-71 -56 -38 0
-72 -57 -39 0
-70 -58 -40 0
-71 -59 -41 0
-72 -60 -42 0
-70 -61 -43 0
-71 -62 -44 0
-72 -63 -45 0
-70 -64 -46 0
-71 -65 -47 0
-72 -66 -48 0
-70 -67 -49 0
-71 -68 -50 0
-72 -69 -51 0
-70 -52 0
-71 -53 0
-72 -54 0
-73 -70 -55 0
-74 -71 -56 0
-75 -72 -57 0
-76 -70 -58 0
-77 -71 -59 0
-78 -72 -60 0
-79 -70 -61 0
-80 -71 -62 0
-81 -72 -63 0
-82 -70 -64 0
-83 -71 -65 0
-84 -72 -66 0
-85 -70 -67 0
-86 -71 -68 0
-87 -72 -69 0
-88 -70 0
-89 -71 0
-90 -72 0
-91 -73 -70 0
-92 -74 -71 0
-93 -75 -72 0
-94 -76 -70 0
-95 -77 -71 0
-96 -78 -72 0
-97 -79 -70 0
-98 -80 -71 0
-99 -81 -72 0
-100 -82 -70 0
-101 -83 -71 0
-102 -84 -72 0
-103 -85 -70 0
-104 -86 -71 0
-105 -87 -72 0
-106 -88 -70 0
-107 -89 -71 0
-108 -90 -72 0
-109 -91 -70 0
-110 -92 -71 0
-111 -93 -72 0
-112 -94 -70 0
-113 -95 -71 0
-114 -96 -72 0
-115 -97 -70 0
-116 -98 -71 0
-117 -99 -72 0
-118 -100 -70 0
-119 -101 -71 0
-120 -102 -72 0
-121 -103 -70 0
-122 -104 -71 0
-123 -105 -72 0
-124 -106 -70 0
-125 -107 -71 0
-126 -108 -72 0
-127 -109 -70 0
-128 -110 -71 0
-129 -111 -72 0
-130 -112 -70 0
-131 -113 -71 0
-132 -114 -72 0
-133 -115 -70 0
-134 -116 -71 0
-135 -117 -72 0
-136 -118 -70 0
-137 -119 -71 0
-138 -120 -72 0
-139 -121 -70 0
-140 -122 -71 0
-141 -123 -72 0
-142 -124 -70 0
-143 -125 -71 0
-144 -126 -72 0
-145 -127 -70 0
-146 -128 -71 0
-147 -129 -72 0
-148 -130 -70 0
-149 -131 -71 0
-150 -132 -72 0
-151 -133 -70 0
-152 -134 -71 0
-153 -135 -72 0
-154 -136 -70 0
-155 -137 -71 0
-156 -138 -72 0
-157 -139 -70 0
-158 -140 -71 0
-159 -141 -72 0
-160 -142 -70 0
-161 -143 -71 0
-162 -144 -72 0
-163 -145 -70 0
-164 -146 -71 0
-165 -147 -72 0
-166 -148 -70 0
-167 -149 -71 0
-168 -150 -72 0
-169 -151 -70 0
-170 -152 -71 0
-171 -153 -72 0
-172 -154 -70 0
-173 -155 -71 0
-174 -156 -72 0
-175 -157 -70 0
-176 -158 -71 0
-177 -159 -72 0
-178 -160 -70 0
-179 -161 -71 0
-180 -162 -72 0
-181 -163 -70 0
-182 -164 -71 0
-183 -165 -72 0
-184 -166 -70 0
-185 -167 -71 0
-186 -168 -72 0
-187 -169 -70 0
-188 -170 -71 0
-189 -171 -72 0
-190 -172 -70 0
-191 -173 -71 0
-192 -174 -72 0
-82 -22 -1 0
-83 -23 -2 0
-84 -24 -3 0
-82 -25 -4 0
-83 -26 -5 0
-84 -27 -6 0
-82 -28 -7 0
-83 -29 -8 0
-84 -30 -9 0
-82 -31 -10 0
-83 -32 -11 0
-84 -33 -12 0
-82 -34 -13 0
-83 -35 -14 0
-84 -36 -15 0
-82 -37 -16 0
-83 -38 -17 0
-84 -39 -18 0
-82 -40 -19 0
-83 -41 -20 0
-84 -42 -21 0
-82 -43 -22 0
-83 -44 -23 0
-84 -45 -24 0
-82 -46 -25 0
-83 -47 -26 0
-84 -48 -27 0
-82 -49 -28 0
-83 -50 -29 0
-84 -51 -30 0
-82 -52 -31 0
-83 -53 -32 0
-84 -54 -33 0
-82 -55 -34 0
-83 -56 -35 0
-84 -57 -36 0
-82 -58 -37 0
-83 -59 -38 0
-84 -60 -39 0
-82 -61 -40 0
-83 -62 -41 0
-84 -63 -42 0
-82 -64 -43 0
-83 -65 -44 0
-84 -66 -45 0
-82 -67 -46 0
-83 -68 -47 0
-84 -69 -48 0
-82 -70 -49 0
-83 -71 -50 0
-84 -72 -51 0
-82 -73 -52 0
-83 -74 -53 0
-84 -75 -54 0
-82 -76 -55 0
-83 -77 -56 0
-84 -78 -57 0
-82 -79 -58 0
-83 -80 -59 0
-84 -81 -60 0
-82 -61 0
-83 -62 0
-84 -63 0
-85 -82 -64 0
-86 -83 -65 0
-87 -84 -66 0
-88 -82 -67 0
-89 -83 -68 0
-90 -84 -69 0
-91 -82 -70 0
-92 -83 -71 0
-93 -84 -72 0
-94 -82 -73 0
-95 -83 -74 0
-96 -84 -75 0
-97 -82 -76 0
-98 -83 -77 0
-99 -84 -78 0
-100 -82 -79 0
-101 -83 -80 0
-102 -84 -81 0
-103 -82 0
-104 -83 0
-105 -84 0
-106 -85 -82 0
-107 -86 -83 0
-108 -87 -84 0
-109 -88 -82 0
-110 -89 -83 0
-111 -90 -84 0
-112 -91 -82 0
-113 -92 -83 0
-114 -93 -84 0
-115 -94 -82 0
-116 -95 -83 0
-117 -96 -84 0
-118 -97 -82 0
-119 -98 -83 0
-120 -99 -84 0
-121 -100 -82 0
-122 -101 -83 0
-123 -102 -84 0
-124 -103 -82 0
-125 -104 -83 0
-126 -105 -84 0
-127 -106 -82 0
-128 -107 -83 0
-129 -108 -84 0
-130 -109 -82 0
-131 -110 -83 0
-132 -111 -84 0
-133 -112 -82 0
-134 -113 -83 0
-135 -114 -84 0
-136 -115 -82 0
-137 -116 -83 0
-138 -117 -84 0
-139 -118 -82 0
-140 -119 -83 0
-141 -120 -84 0
-142 -121 -82 0
-143 -122 -83 0
-144 -123 -84 0
-145 -124 -82 0
-146 -125 -83 0
-147 -126 -84 0
-148 -127 -82 0
-149 -128 -83 0
-150 -129 -84 0
-151 -130 -82 0
-152 -131 -83 0
-153 -132 -84 0
-154 -133 -82 0
-155 -134 -83 0
-156 -135 -84 0
-157 -136 -82 0
-158 -137 -83 0
-159 -138 -84 0
-160 -139 -82 0
-161 -140 -83 0
-162 -141 -84 0
-163 -142 -82 0
-164 -143 -83 0
-165 -144 -84 0
-166 -145 -82 0
-167 -146 -83 0
-168 -147 -84 0
-169 -148 -82 0
-170 -149 -83 0
-171 -150 -84 0
-172 -151 -82 0
-173 -152 -83 0
-174 -153 -84 0
-175 -154 -82 0
-176 -155 -83 0
-177 -156 -84 0
-178 -157 -82 0
-179 -158 -83 0
-180 -159 -84 0
-181 -160 -82 0
-182 -161 -83 0
-183 -162 -84 0
-184 -163 -82 0
-185 -164 -83 0
-186 -165 -84 0
-187 -166 -82 0
-188 -167 -83 0
-189 -168 -84 0
-190 -169 -82 0
-191 -170 -83 0
-192 -171 -84 0
-94 -25 -1 0
-95 -26 -2 0
-96 -27 -3 0
-94 -28 -4 0
-95 -29 -5 0
-96 -30 -6 0
-94 -31 -7 0
-95 -32 -8 0
-96 -33 -9 0
-94 -34 -10 0
-95 -35 -11 0
-96 -36 -12 0
-94 -37 -13 0
-95 -38 -14 0
-96 -39 -15 0
-94 -40 -16 0
-95 -41 -17 0
-96 -42 -18 0
-94 -43 -19 0
-95 -44 -20 0
-96 -45 -21 0
-94 -46 -22 0
-95 -47 -23 0
-96 -48 -24 0
-94 -49 -25 0
-95 -50 -26 0
-96 -51 -27 0
-94 -52 -28 0
-95 -53 -29 0
-96 -54 -30 0
-94 -55 -31 0
-95 -56 -32 0
-96 -57 -33 0
-94 -58 -34 0
-95 -59 -35 0
-96 -60 -36 0
-94 -61 -37 0
-95 -62 -38 0
-96 -63 -39 0
-94 -64 -40 0
-95 -65 -41 0
-96 -66 -42 0
-94 -67 -43 0
-95 -68 -44 0
-96 -69 -45 0
-94 -70 -46 0
-95 -71 -47 0
-96 -72 -48 0
-94 -73 -49 0
-95 -74 -50 0
-96 -75 -51 0
-94 -76 -52 0
-95 -77 -53 0
-96 -78 -54 0
-94 -79 -55 0
-95 -80 -56 0
-96 -81 -57 0
-94 -82 -58 0
-95 -83 -59 0
-96 -84 -60 0
-94 -85 -61 0
-95 -86 -62 0
-96 -87 -63 0
-94 -88 -64 0
-95 -89 -65 0
-96 -90 -66 0
-94 -91 -67 0
-95 -92 -68 0
-96 -93 -69 0
-94 -70 0
-95 -71 0
-96 -72 0
-97 -94 -73 0
-98 -95 -74 0
-99 -96 -75 0
-100 -94 -76 0
-101 -95 -77 0
-102 -96 -78 0
-103 -94 -79 0
-104 -95 -80 0
-105 -96 -81 0
-106 -94 -82 0
-107 -95 -83 0
-108 -96 -84 0
-109 -94 -85 0
-110 -95 -86 0
-111 -96 -87 0
-112 -94 -88 0
-113 -95 -89 0
-114 -96 -90 0
-115 -94 -91 0
-116 -95 -92 0
-117 -96 -93 0
-118 -94 0
-119 -95 0
-120 -96 0
-121 -97 -94 0
-122 -98 -95 0
-123 -99 -96 0
-124 -100 -94 0
-125 -101 -95 0
-126 -102 -96 0
-127 -103 -94 0
-128 -104 -95 0
-129 -105 -96 0
-130 -106 -94 0
-131 -107 -95 0
-132 -108 -96 0
-133 -109 -94 0
-134 -110 -95 0
-135 -111 -96 0
-136 -112 -94 0
-137 -113 -95 0
-138 -114 -96 0
-139 -115 -94 0
-140 -116 -95 0
-141 -117 -96 0
-142 -118 -94 0
-143 -119 -95 0
-144 -120 -96 0
-145 -121 -94 0
-146 -122 -95 0
-147 -123 -96 0
-148 -124 -94 0
-149 -125 -95 0
-150 -126 -96 0
-151 -127 -94 0
-152 -128 -95 0
-153 -129 -96 0
-154 -130 -94 0
-155 -131 -95 0
-156 -132 -96 0
-157 -133 -94 0
-158 -134 -95 0
-159 -135 -96 0
-160 -136 -94 0
-161 -137 -95 0
-162 -138 -96 0
-163 -139 -94 0
-164 -140 -95 0
-165 -141 -96 0
-166 -142 -94 0
-167 -143 -95 0
-168 -144 -96 0
-169 -145 -94 0
-170 -146 -95 0
-171 -147 -96 0
-172 -148 -94 0
-173 -149 -95 0
-174 -150 -96 0
-175 -151 -94 0
-176 -152 -95 0
-177 -153 -96 0
-178 -154 -94 0
-179 -155 -95 0
-180 -156 -96 0
-181 -157 -94 0
-182 -158 -95 0
-183 -159 -96 0
-184 -160 -94 0
-185 -161 -95 0
-186 -162 -96 0
-187 -163 -94 0
-188 -164 -95 0
-189 -165 -96 0
-190 -166 -94 0
-191 -167 -95 0
-192 -168 -96 0
-106 -28 -1 0
-107 -29 -2 0
-108 -30 -3 0
-106 -31 -4 0
-107 -32 -5 0
-108 -33 -6 0
-106 -34 -7 0
-107 -35 -8 0
-108 -36 -9 0
-106 -37 -10 0
-107 -38 -11 0
-108 -39 -12 0
-106 -40 -13 0
-107 -41 -14 0
-108 -42 -15 0
-106 -43 -16 0
-107 -44 -17 0
-108 -45 -18 0
-106 -46 -19 0
-107 -47 -20 0
-108 -48 -21 0
-106 -49 -22 0
-107 -50 -23 0
-108 -51 -24 0
-106 -52 -25 0
-107 -53 -26 0
-108 -54 -27 0
-106 -55 -28 0
-107 -56 -29 0
-108 -57 -30 0
-106 -58 -31 0
-107 -59 -32 0
-108 -60 -33 0
-106 -61 -34 0
-107 -62 -35 0
-108 -63 -36 0
-106 -64 -37 0
-107 -65 -38 0
-108 -66 -39 0
-106 -67 -40 0
-107 -68 -41 0
-108 -69 -42 0
-106 -70 -43 0
-107 -71 -44 0
-108 -72 -45 0
-106 -73 -46 0
-107 -74 -47 0
-108 -75 -48 0
-106 -76 -49 0
-107 -77 -50 0
-108 -78 -51 0
-106 -79 -52 0
-107 -80 -53 0
-108 -81 -54 0
-106 -82 -55 0
-107 -83 -56 0
-108 -84 -57 0
-106 -85 -58 0
-107 -86 -59 0
-108 -87 -60 0
-106 -88 -61 0
-107 -89 -62 0
-108 -90 -63 0
-106 -91 -64 0
-107 -92 -65 0
-108 -93 -66 0
-106 -94 -67 0
-107 -95 -68 0
-108 -96 -69 0
-106 -97 -70 0
-107 -98 -71 0
-108 -99 -72 0
-106 -100 -73 0
-107 -101 -74 0
-108 -102 -75 0
-106 -103 -76 0
-107 -104 -77 0
-108 -105 -78 0
-106 -79 0
-107 -80 0
-108 -81 0
-109 -106 -82 0
-110 -107 -83 0
-111 -108 -84 0
-112 -106 -85 0
-113 -107 -86 0
-114 -108 -87 0
-115 -106 -88 0
-116 -107 -89 0
-117 -108 -90 0
-118 -106 -91 0
-119 -107 -92 0
-120 -108 -93 0
-121 -106 -94 0
-122 -107 -95 0
-123 -108 -96 0
-124 -106 -97 0
-125 -107 -98 0
-126 -108 -99 0
-127 -106 -100 0
-128 -107 -101 0
-129 -108 -102 0
-130 -106 -103 0
-131 -107 -104 0
-132 -108 -105 0
-133 -106 0
-134 -107 0
-135 -108 0
-136 -109 -106 0
-137 -110 -107 0
-138 -111 -108 0
-139 -112 -106 0
-140 -113 -107 0
-141 -114 -108 0
-142 -115 -106 0
-143 -116 -107 0
-144 -117 -108 0
-145 -118 -106 0
-146 -119 -107 0
-147 -120 -108 0
-148 -121 -106 0
-149 -122 -107 0
-150 -123 -108 0
-151 -124 -106 0
-152 -125 -107 0
-153 -126 -108 0
-154 -127 -106 0
-155 -128 -107 0
-156 -129 -108 0
-157 -130 -106 0
-158 -131 -107 0
-159 -132 -108 0
-160 -133 -106 0
-161 -134 -107 0
-162 -135 -108 0
-163 -136 -106 0
-164 -137 -107 0
-165 -138 -108 0
-166 -139 -106 0
-167 -140 -107 0
-168 -141 -108 0
-169 -142 -106 0
-170 -143 -107 0
-171 -144 -108 0
-172 -145 -106 0
-173 -146 -107 0
-174 -147 -108 0
-175 -148 -106 0
-176 -149 -107 0
-177 -150 -108 0
-178 -151 -106 0
-179 -152 -107 0
-180 -153 -108 0
-181 -154 -106 0
-182 -155 -107 0
-183 -156 -108 0
-184 -157 -106 0
-185 -158 -107 0
-186 -159 -108 0
-187 -160 -106 0
-188 -161 -107 0
-189 -162 -108 0
-190 -163 -106 0
-191 -164 -107 0
-192 -165 -108 0
-118 -31 -1 0
-119 -32 -2 0
-120 -33 -3 0
-118 -34 -4 0
-119 -35 -5 0
-120 -36 -6 0
-118 -37 -7 0
-119 -38 -8 0
-120 -39 -9 0
-118 -40 -10 0
-119 -41 -11 0
-120 -42 -12 0
-118 -43 -13 0
-119 -44 -14 0
-120 -45 -15 0
-118 -46 -16 0
-119 -47 -17 0
-120 -48 -18 0
-118 -49 -19 0
-119 -50 -20 0
-120 -51 -21 0
-118 -52 -22 0
-119 -53 -23 0
-120 -54 -24 0
-118 -55 -25 0
-119 -56 -26 0
-120 -57 -27 0
-118 -58 -28 0
-119 -59 -29 0
-120 -60 -30 0
-118 -61 -31 0
-119 -62 -32 0
-120 -63 -33 0
-118 -64 -34 0
-119 -65 -35 0
-120 -66 -36 0
-118 -67 -37 0
-119 -68 -38 0
-120 -69 -39 0
-118 -70 -40 0
-119 -71 -41 0
-120 -72 -42 0
-118 -73 -43 0
-119 -74 -44 0
-120 -75 -45 0
-118 -76 -46 0
-119 -77 -47 0
-120 -78 -48 0
-118 -79 -49 0
-119 -80 -50 0
-120 -81 -51 0
-118 -82 -52 0
-119 -83 -53 0
-120 -84 -54 0
-118 -85 -55 0
-119 -86 -56 0
-120 -87 -57 0
-118 -88 -58 0
-119 -89 -59 0
-120 -90 -60 0
-118 -91 -61 0
-119 -92 -62 0
-120 -93 -63 0
-118 -94 -64 0
-119 -95 -65 0
-120 -96 -66 0
-118 -97 -67 0
-119 -98 -68 0
-120 -99 -69 0
-118 -100 -70 0
-119 -101 -71 0
-120 -102 -72 0
-118 -103 -73 0
-119 -104 -74 0
-120 -105 -75 0
-118 -106 -76 0
-119 -107 -77 0
-120 -108 -78 0
-118 -109 -79 0
-119 -110 -80 0
-120 -111 -81 0
-118 -112 -82 0
-119 -113 -83 0
-120 -114 -84 0
-118 -115 -85 0
-119 -116 -86 0
-120 -117 -87 0
-118 -88 0
-119 -89 0
-120 -90 0
-121 -118 -91 0
-122 -119 -92 0
-123 -120 -93 0
-124 -118 -94 0
-125 -119 -95 0
-126 -120 -96 0
-127 -118 -97 0
-128 -119 -98 0
-129 -120 -99 0
-130 -118 -100 0
-131 -119 -101 0
-132 -120 -102 0
-133 -118 -103 0
-134 -119 -104 0
-135 -120 -105 0
-136 -118 -106 0
-137 -119 -107 0
-138 -120 -108 0
-139 -118 -109 0
-140 -119 -110 0
-141 -120 -111 0
-142 -118 -112 0
-143 -119 -113 0
-144 -120 -114 0
-145 -118 -115 0
-146 -119 -116 0
-147 -120 -117 0
-148 -118 0
-149 -119 0
-150 -120 0
-151 -121 -118 0
-152 -122 -119 0
-153 -123 -120 0
-154 -124 -118 0
-155 -125 -119 0
-156 -126 -120 0
-157 -127 -118 0
-158 -128 -119 0
-159 -129 -120 0
-160 -130 -118 0
-161 -131 -119 0
-162 -132 -120 0
-163 -133 -118 0
-164 -134 -119 0
-165 -135 -120 0
-166 -136 -118 0
-167 -137 -119 0
-168 -138 -120 0
-169 -139 -118 0
-170 -140 -119 0
-171 -141 -120 0
-172 -142 -118 0
-173 -143 -119 0
-174 -144 -120 0
-175 -145 -118 0
-176 -146 -119 0
-177 -147 -120 0
-178 -148 -118 0
-179 -149 -119 0
-180 -150 -120 0
-181 -151 -118 0
-182 -152 -119 0
-183 -153 -120 0
-184 -154 -118 0
-185 -155 -119 0
-186 -156 -120 0
-187 -157 -118 0
-188 -158 -119 0
-189 -159 -120 0
-190 -160 -118 0
-191 -161 -119 0
-192 -162 -120 0
-130 -34 -1 0
-131 -35 -2 0
-132 -36 -3 0
-130 -37 -4 0
-131 -38 -5 0
-132 -39 -6 0
-130 -40 -7 0
-131 -41 -8 0
-132 -42 -9 0
-130 -43 -10 0
-131 -44 -11 0
-132 -45 -12 0
-130 -46 -13 0
-131 -47 -14 0
-132 -48 -15 0
-130 -49 -16 0
-131 -50 -17 0
-132 -51 -18 0
-130 -52 -19 0
-131 -53 -20 0
-132 -54 -21 0
-130 -55 -22 0
-131 -56 -23 0
-132 -57 -24 0
-130 -58 -25 0
-131 -59 -26 0
-132 -60 -27 0
-130 -61 -28 0
-131 -62 -29 0
-132 -63 -30 0
-130 -64 -31 0
-131 -65 -32 0
-132 -66 -33 0
-130 -67 -34 0
-131 -68 -35 0
-132 -69 -36 0
-130 -70 -37 0
-131 -71 -38 0
-132 -72 -39 0
-130 -73 -40 0
-131 -74 -41 0
-132 -75 -42 0
-130 -76 -43 0
-131 -77 -44 0
-132 -78 -45 0
-130 -79 -46 0
-131 -80 -47 0
-132 -81 -48 0
-130 -82 -49 0
-131 -83 -50 0
-132 -84 -51 0
-130 -85 -52 0
-131 -86 -53 0
-132 -87 -54 0
-130 -88 -55 0
-131 -89 -56 0
-132 -90 -57 0
-130 -91 -58 0
-131 -92 -59 0
-132 -93 -60 0
-130 -94 -61 0
-131 -95 -62 0
-132 -96 -63 0
-130 -97 -64 0
-131 -98 -65 0
-132 -99 -66 0
-130 -100 -67 0
-131 -101 -68 0
-132 -102 -69 0
-130 -103 -70 0
-131 -104 -71 0
-132 -105 -72 0
-130 -106 -73 0
-131 -107 -74 0
-132 -108 -75 0
-130 -109 -76 0
-131 -110 -77 0
-132 -111 -78 0
-130 -112 -79 0
-131 -113 -80 0
-132 -114 -81 0
-130 -115 -82 0
-131 -116 -83 0
-132 -117 -84 0
-130 -118 -85 0
-131 -119 -86 0
-132 -120 -87 0
-130 -121 -88 0
-131 -122 -89 0
-132 -123 -90 0
-130 -124 -91 0
-131 -125 -92 0
-132 -126 -93 0
-130 -127 -94 0
-131 -128 -95 0
-132 -129 -96 0
-130 -97 0
-131 -98 0
-132 -99 0
-133 -130 -100 0
-134 -131 -101 0
-135 -132 -102 0
-136 -130 -103 0
-137 -131 -104 0
-138 -132 -105 0
-139 -130 -106 0
-140 -131 -107 0
-141 -132 -108 0
-142 -130 -109 0
-143 -131 -110 0
-144 -132 -111 0
-145 -130 -112 0
-146 -131 -113 0
-147 -132 -114 0
-148 -130 -115 0
-149 -131 -116 0
-150 -132 -117 0
-151 -130 -118 0
-152 -131 -119 0
-153 -132 -120 0
-154 -130 -121 0
-155 -131 -122 0
-156 -132 -123 0
-157 -130 -124 0
-158 -131 -125 0
-159 -132 -126 0
-160 -130 -127 0
-161 -131 -128 0
-162 -132 -129 0
-163 -130 0
-164 -131 0
-165 -132 0
-166 -133 -130 0
-167 -134 -131 0
-168 -135 -132 0
-169 -136 -130 0
-170 -137 -131 0
-171 -138 -132 0
-172 -139 -130 0
-173 -140 -131 0
-174 -141 -132 0
-175 -142 -130 0
-176 -143 -131 0
-177 -144 -132 0
-178 -145 -130 0
-179 -146 -131 0
-180 -147 -132 0
-181 -148 -130 0
-182 -149 -131 0
-183 -150 -132 0
-184 -151 -130 0
-185 -152 -131 0
-186 -153 -132 0
-187 -154 -130 0
-188 -155 -131 0
-189 -156 -132 0
-190 -157 -130 0
-191 -158 -131 0
-192 -159 -132 0
-142 -37 -1 0
-143 -38 -2 0
-144 -39 -3 0
-142 -40 -4 0
-143 -41 -5 0
-144 -42 -6 0
-142 -43 -7 0
-143 -44 -8 0
-144 -45 -9 0
-142 -46 -10 0
-143 -47 -11 0
-144 -48 -12 0
-142 -49 -13 0
-143 -50 -14 0
-144 -51 -15 0
-142 -52 -16 0
-143 -53 -17 0
-144 -54 -18 0
-142 -55 -19 0
-143 -56 -20 0
-144 -57 -21 0
-142 -58 -22 0
-143 -59 -23 0
-144 -60 -24 0
-142 -61 -25 0
-143 -62 -26 0
-144 -63 -27 0
-142 -64 -28 0
-143 -65 -29 0
-144 -66 -30 0
-142 -67 -31 0
-143 -68 -32 0
-144 -69 -33 0
-142 -70 -34 0
-143 -71 -35 0
-144 -72 -36 0
-142 -73 -37 0
-143 -74 -38 0
-144 -75 -39 0
-142 -76 -40 0
-143 -77 -41 0
-144 -78 -42 0
-142 -79 -43 0
-143 -80 -44 0
-144 -81 -45 0
-142 -82 -46 0
-143 -83 -47 0
-144 -84 -48 0
-142 -85 -49 0
-143 -86 -50 0
-144 -87 -51 0
-142 -88 -52 0
-143 -89 -53 0
-144 -90 -54 0
-142 -91 -55 0
-143 -92 -56 0
-144 -93 -57 0
-142 -94 -58 0
-143 -95 -59 0
-144 -96 -60 0
-142 -97 -61 0
-143 -98 -62 0
-144 -99 -63 0
-142 -100 -64 0
-143 -101 -65 0
-144 -102 -66 0
-142 -103 -67 0
-143 -104 -68 0
-144 -105 -69 0
-142 -106 -70 0
-143 -107 -71 0
-144 -108 -72 0
-142 -109 -73 0
-143 -110 -74 0
-144 -111 -75 0
-142 -112 -76 0
-143 -113 -77 0
-144 -114 -78 0
-142 -115 -79 0
-143 -116 -80 0
-144 -117 -81 0
-142 -118 -82 0
-143 -119 -83 0
-144 -120 -84 0
-142 -121 -85 0
-143 -122 -86 0
-144 -123 -87 0
-142 -124 -88 0
-143 -125 -89 0
-144 -126 -90 0
-142 -127 -91 0
-143 -128 -92 0
-144 -129 -93 0
-142 -130 -94 0
-143 -131 -95 0
-144 -132 -96 0
-142 -133 -97 0
-143 -134 -98 0
-144 -135 -99 0
-142 -136 -100 0
-143 -137 -101 0
-144 -138 -102 0
-142 -139 -103 0
-143 -140 -104 0
-144 -141 -105 0
-142 -106 0
-143 -107 0
-144 -108 0
-145 -142 -109 0
-146 -143 -110 0
-147 -144 -111 0
-148 -142 -112 0
-149 -143 -113 0
-150 -144 -114 0
-151 -142 -115 0
-152 -143 -116 0
-153 -144 -117 0
-154 -142 -118 0
-155 -143 -119 0
-156 -144 -120 0
-157 -142 -121 0
-158 -143 -122 0
-159 -144 -123 0
-160 -142 -124 0
-161 -143 -125 0
-162 -144 -126 0
-163 -142 -127 0
-164 -143 -128 0
-165 -144 -129 0
-166 -142 -130 0
-167 -143 -131 0
-168 -144 -132 0
-169 -142 -133 0
-170 -143 -134 0
-171 -144 -135 0
-172 -142 -136 0
-173 -143 -137 0
-174 -144 -138 0
-175 -142 -139 0
-176 -143 -140 0
-177 -144 -141 0
-178 -142 0
-179 -143 0
-180 -144 0
-181 -145 -142 0
-182 -146 -143 0
-183 -147 -144 0
-184 -148 -142 0
-185 -149 -143 0
-186 -150 -144 0
-187 -151 -142 0
-188 -152 -143 0
-189 -153 -144 0
-190 -154 -142 0
-191 -155 -143 0
-192 -156 -144 0
-154 -40 -1 0
-155 -41 -2 0
-156 -42 -3 0
-154 -43 -4 0
-155 -44 -5 0
-156 -45 -6 0
-154 -46 -7 0
-155 -47 -8 0
-156 -48 -9 0
-154 -49 -10 0
-155 -50 -11 0
-156 -51 -12 0
-154 -52 -13 0
-155 -53 -14 0
-156 -54 -15 0
-154 -55 -16 0
-155 -56 -17 0
-156 -57 -18 0
-154 -58 -19 0
-155 -59 -20 0
-156 -60 -21 0
-154 -61 -22 0
-155 -62 -23 0
-156 -63 -24 0
-154 -64 -25 0
-155 -65 -26 0
-156 -66 -27 0
-154 -67 -28 0
-155 -68 -29 0
-156 -69 -30 0
-154 -70 -31 0
-155 -71 -32 0
-156 -72 -33 0
-154 -73 -34 0
-155 -74 -35 0
-156 -75 -36 0
-154 -76 -37 0
-155 -77 -38 0
-156 -78 -39 0
-154 -79 -40 0
-155 -80 -41 0
-156 -81 -42 0
-154 -82 -43 0
-155 -83 -44 0
-156 -84 -45 0
-154 -85 -46 0
-155 -86 -47 0
-156 -87 -48 0
-154 -88 -49 0
-155 -89 -50 0
-156 -90 -51 0
-154 -91 -52 0
-155 -92 -53 0
-156 -93 -54 0
-154 -94 -55 0
-155 -95 -56 0
-156 -96 -57 0
-154 -97 -58 0
-155 -98 -59 0
-156 -99 -60 0
-154 -100 -61 0
-155 -101 -62 0
-156 -102 -63 0
-154 -103 -64 0
-155 -104 -65 0
-156 -105 -66 0
-154 -106 -67 0
-155 -107 -68 0
-156 -108 -69 0
-154 -109 -70 0
-155 -110 -71 0
-156 -111 -72 0
-154 -112 -73 0
-155 -113 -74 0
-156 -114 -75 0
-154 -115 -76 0
-155 -116 -77 0
-156 -117 -78 0
-154 -118 -79 0
-155 -119 -80 0
-156 -120 -81 0
-154 -121 -82 0
-155 -122 -83 0
-156 -123 -84 0
-154 -124 -85 0
-155 -125 -86 0
-156 -126 -87 0
-154 -127 -88 0
-155 -128 -89 0
-156 -129 -90 0
-154 -130 -91 0
-155 -131 -92 0
-156 -132 -93 0
-154 -133 -94 0
-155 -134 -95 0
-156 -135 -96 0
-154 -136 -97 0
-155 -137 -98 0
-156 -138 -99 0
-154 -139 -100 0
-155 -140 -101 0
-156 -141 -102 0
-154 -142 -103 0
-155 -143 -104 0
-156 -144 -105 0
-154 -145 -106 0
-155 -146 -107 0
-156 -147 -108 0
-154 -148 -109 0
-155 -149 -110 0
-156 -150 -111 0
-154 -151 -112 0
-155 -152 -113 0
-156 -153 -114 0
-154 -115 0
-155 -116 0
-156 -117 0
-157 -154 -118 0
-158 -155 -119 0
-159 -156 -120 0
-160 -154 -121 0
-161 -155 -122 0
-162 -156 -123 0
-163 -154 -124 0
-164 -155 -125 0
-165 -156 -126 0
-166 -154 -127 0
-167 -155 -128 0
-168 -156 -129 0
-169 -154 -130 0
-170 -155 -131 0
-171 -156 -132 0
-172 -154 -133 0
-173 -155 -134 0
-174 -156 -135 0
-175 -154 -136 0
-176 -155 -137 0
-177 -156 -138 0
-178 -154 -139 0
-179 -155 -140 0
-180 -156 -141 0
-181 -154 -142 0
-182 -155 -143 0
-183 -156 -144 0
-184 -154 -145 0
-185 -155 -146 0
-186 -156 -147 0
-187 -154 -148 0
-188 -155 -149 0
-189 -156 -150 0
-190 -154 -151 0
-191 -155 -152 0
-192 -156 -153 0
-166 -43 -1 0
-167 -44 -2 0
-168 -45 -3 0
-166 -46 -4 0
-167 -47 -5 0
-168 -48 -6 0
-166 -49 -7 0
-167 -50 -8 0
-168 -51 -9 0
-166 -52 -10 0
-167 -53 -11 0
-168 -54 -12 0
-166 -55 -13 0
-167 -56 -14 0
-168 -57 -15 0
-166 -58 -16 0
-167 -59 -17 0
-168 -60 -18 0
-166 -61 -19 0
-167 -62 -20 0
-168 -63 -21 0
-166 -64 -22 0
-167 -65 -23 0
-168 -66 -24 0
-166 -67 -25 0
-167 -68 -26 0
-168 -69 -27 0
-166 -70 -28 0
-167 -71 -29 0
-168 -72 -30 0
-166 -73 -31 0
-167 -74 -32 0
-168 -75 -33 0
-166 -76 -34 0
-167 -77 -35 0
-168 -78 -36 0
-166 -79 -37 0
-167 -80 -38 0
-168 -81 -39 0
-166 -82 -40 0
-167 -83 -41 0
-168 -84 -42 0
-166 -85 -43 0
-167 -86 -44 0
-168 -87 -45 0
-166 -88 -46 0
-167 -89 -47 0
-168 -90 -48 0
-166 -91 -49 0
-167 -92 -50 0
-168 -93 -51 0
-166 -94 -52 0
-167 -95 -53 0
-168 -96 -54 0
-166 -97 -55 0
-167 -98 -56 0
-168 -99 -57 0
-166 -100 -58 0
-167 -101 -59 0
-168 -102 -60 0
-166 -103 -61 0
-167 -104 -62 0
-168 -105 -63 0
-166 -106 -64 0
-167 -107 -65 0
-168 -108 -66 0
-166 -109 -67 0
-167 -110 -68 0
-168 -111 -69 0
-166 -112 -70 0
-167 -113 -71 0
-168 -114 -72 0
-166 -115 -73 0
-167 -116 -74 0
-168 -117 -75 0
-166 -118 -76 0
-167 -119 -77 0
-168 -120 -78 0
-166 -121 -79 0
-167 -122 -80 0
-168 -123 -81 0
-166 -124 -82 0
-167 -125 -83 0
-168 -126 -84 0
-166 -127 -85 0
-167 -128 -86 0
-168 -129 -87 0
-166 -130 -88 0
-167 -131 -89 0
-168 -132 -90 0
-166 -133 -91 0
-167 -134 -92 0
-168 -135 -93 0
-166 -136 -94 0
-167 -137 -95 0
-168 -138 -96 0
-166 -139 -97 0
-167 -140 -98 0
-168 -141 -99 0
-166 -142 -100 0
-167 -143 -101 0
-168 -144 -102 0
-166 -145 -103 0
-167 -146 -104 0
-168 -147 -105 0
-166 -148 -106 0
-167 -149 -107 0
-168 -150 -108 0
-166 -151 -109 0
-167 -152 -110 0
-168 -153 -111 0
-166 -154 -112 0
-167 -155 -113 0
-168 -156 -114 0
-166 -157 -115 0
-167 -158 -116 0
-168 -159 -117 0
-166 -160 -118 0
-167 -161 -119 0
-168 -162 -120 0
-166 -163 -121 0
-167 -164 -122 0
-168 -165 -123 0
-166 -124 0
-167 -125 0
-168 -126 0
-169 -166 -127 0
-170 -167 -128 0
-171 -168 -129 0
-172 -166 -130 0
-173 -167 -131 0
-174 -168 -132 0
-175 -166 -133 0
-176 -167 -134 0
-177 -168 -135 0
-178 -166 -136 0
-179 -167 -137 0
-180 -168 -138 0
-181 -166 -139 0
-182 -167 -140 0
-183 -168 -141 0
-184 -166 -142 0
-185 -167 -143 0
-186 -168 -144 0
-187 -166 -145 0
-188 -167 -146 0
-189 -168 -147 0
-190 -166 -148 0
-191 -167 -149 0
-192 -168 -150 0
-178 -46 -1 0
-179 -47 -2 0
-180 -48 -3 0
-178 -49 -4 0
-179 -50 -5 0
-180 -51 -6 0
-178 -52 -7 0
-179 -53 -8 0
-180 -54 -9 0
-178 -55 -10 0
-179 -56 -11 0
-180 -57 -12 0
-178 -58 -13 0
-179 -59 -14 0
-180 -60 -15 0
-178 -61 -16 0
-179 -62 -17 0
-180 -63 -18 0
-178 -64 -19 0
-179 -65 -20 0
-180 -66 -21 0
-178 -67 -22 0
-179 -68 -23 0
-180 -69 -24 0
-178 -70 -25 0
-179 -71 -26 0
-180 -72 -27 0
-178 -73 -28 0
-179 -74 -29 0
-180 -75 -30 0
-178 -76 -31 0
-179 -77 -32 0
-180 -78 -33 0
-178 -79 -34 0
-179 -80 -35 0
-180 -81 -36 0
-178 -82 -37 0
-179 -83 -38 0
-180 -84 -39 0
-178 -85 -40 0
-179 -86 -41 0
-180 -87 -42 0
-178 -88 -43 0
-179 -89 -44 0
-180 -90 -45 0
-178 -91 -46 0
-179 -92 -47 0
-180 -93 -48 0
-178 -94 -49 0
-179 -95 -50 0
-180 -96 -51 0
-178 -97 -52 0
-179 -98 -53 0
-180 -99 -54 0
-178 -100 -55 0
-179 -101 -56 0
-180 -102 -57 0
-178 -103 -58 0
-179 -104 -59 0
-180 -105 -60 0
-178 -106 -61 0
-179 -107 -62 0
-180 -108 -63 0
-178 -109 -64 0
-179 -110 -65 0
-180 -111 -66 0
-178 -112 -67 0
-179 -113 -68 0
-180 -114 -69 0
-178 -115 -70 0
-179 -116 -71 0
-180 -117 -72 0
-178 -118 -73 0
-179 -119 -74 0
-180 -120 -75 0
-178 -121 -76 0
-179 -122 -77 0
-180 -123 -78 0
-178 -124 -79 0
-179 -125 -80 0
-180 -126 -81 0
-178 -127 -82 0
-179 -128 -83 0
-180 -129 -84 0
-178 -130 -85 0
-179 -131 -86 0
-180 -132 -87 0
-178 -133 -88 0
-179 -134 -89 0
-180 -135 -90 0
-178 -136 -91 0
-179 -137 -92 0
-180 -138 -93 0
-178 -139 -94 0
-179 -140 -95 0
-180 -141 -96 0
-178 -142 -97 0
-179 -143 -98 0
-180 -144 -99 0
-178 -145 -100 0
-179 -146 -101 0
-180 -147 -102 0
-178 -148 -103 0
-179 -149 -104 0
-180 -150 -105 0
-178 -151 -106 0
-179 -152 -107 0
-180 -153 -108 0
-178 -154 -109 0
-179 -155 -110 0
-180 -156 -111 0
-178 -157 -112 0
-179 -158 -113 0
-180 -159 -114 0
-178 -160 -115 0
-179 -161 -116 0
-180 -162 -117 0
-178 -163 -118 0
-179 -164 -119 0
-180 -165 -120 0
-178 -166 -121 0
-179 -167 -122 0
-180 -168 -123 0
-178 -169 -124 0
-179 -170 -125 0
-180 -171 -126 0
-178 -172 -127 0
-179 -173 -128 0
-180 -174 -129 0
-178 -175 -130 0
-179 -176 -131 0
-180 -177 -132 0
-178 -133 0
-179 -134 0
-180 -135 0
-181 -178 -136 0
-182 -179 -137 0
-183 -180 -138 0
-184 -178 -139 0
-185 -179 -140 0
-186 -180 -141 0
-187 -178 -142 0
-188 -179 -143 0
-189 -180 -144 0
-190 -178 -145 0
-191 -179 -146 0
-192 -180 -147 0
-190 -49 -1 0
-191 -50 -2 0
-192 -51 -3 0
-190 -52 -4 0
-191 -53 -5 0
-192 -54 -6 0
-190 -55 -7 0
-191 -56 -8 0
-192 -57 -9 0
-190 -58 -10 0
-191 -59 -11 0
-192 -60 -12 0
-190 -61 -13 0
-191 -62 -14 0
-192 -63 -15 0
-190 -64 -16 0
-191 -65 -17 0
-192 -66 -18 0
-190 -67 -19 0
-191 -68 -20 0
-192 -69 -21 0
-190 -70 -22 0
-191 -71 -23 0
-192 -72 -24 0
-190 -73 -25 0
-191 -74 -26 0
-192 -75 -27 0
-190 -76 -28 0
-191 -77 -29 0
-192 -78 -30 0
-190 -79 -31 0
-191 -80 -32 0
-192 -81 -33 0
-190 -82 -34 0
-191 -83 -35 0
-192 -84 -36 0
-190 -85 -37 0
-191 -86 -38 0
-192 -87 -39 0
-190 -88 -40 0
-191 -89 -41 0
-192 -90 -42 0
-190 -91 -43 0
-191 -92 -44 0
-192 -93 -45 0
-190 -94 -46 0
-191 -95 -47 0
-192 -96 -48 0
-190 -97 -49 0
-191 -98 -50 0
-192 -99 -51 0
-190 -100 -52 0
-191 -101 -53 0
-192 -102 -54 0
-190 -103 -55 0
-191 -104 -56 0
-192 -105 -57 0
-190 -106 -58 0
-191 -107 -59 0
-192 -108 -60 0
-190 -109 -61 0
-191 -110 -62 0
-192 -111 -63 0
-190 -112 -64 0
-191 -113 -65 0
-192 -114 -66 0
-190 -115 -67 0
-191 -116 -68 0
-192 -117 -69 0
-190 -118 -70 0
-191 -119 -71 0
-192 -120 -72 0
-190 -121 -73 0
-191 -122 -74 0
-192 -123 -75 0
-190 -124 -76 0
-191 -125 -77 0
-192 -126 -78 0
-190 -127 -79 0
-191 -128 -80 0
-192 -129 -81 0
-190 -130 -82 0
-191 -131 -83 0
-192 -132 -84 0
-190 -133 -85 0
-191 -134 -86 0
-192 -135 -87 0
-190 -136 -88 0
-191 -137 -89 0
-192 -138 -90 0
-190 -139 -91 0
-191 -140 -92 0
-192 -141 -93 0
-190 -142 -94 0
-191 -143 -95 0
-192 -144 -96 0
-190 -145 -97 0
-191 -146 -98 0
-192 -147 -99 0
-190 -148 -100 0
-191 -149 -101 0
-192 -150 -102 0
-190 -151 -103 0
-191 -152 -104 0
-192 -153 -105 0
-190 -154 -106 0
-191 -155 -107 0
-192 -156 -108 0
-190 -157 -109 0
-191 -158 -110 0
-192 -159 -111 0
-190 -160 -112 0
-191 -161 -113 0
-192 -162 -114 0
-190 -163 -115 0
-191 -164 -116 0
-192 -165 -117 0
-190 -166 -118 0
-191 -167 -119 0
-192 -168 -120 0
-190 -169 -121 0
-191 -170 -122 0
-192 -171 -123 0
-190 -172 -124 0
-191 -173 -125 0
-192 -174 -126 0
-190 -175 -127 0
-191 -176 -128 0
-192 -177 -129 0
-190 -178 -130 0
-191 -179 -131 0
-192 -180 -132 0
-190 -181 -133 0
-191 -182 -134 0
-192 -183 -135 0
-190 -184 -136 0
-191 -185 -137 0
-192 -186 -138 0
-190 -187 -139 0
-191 -188 -140 0
-192 -189 -141 0
-190 -142 0
-191 -143 0
-192 -144 0
